86

Pt      5.654999999999999      5.654999999999999      3.770000000000000
Pt      3.770000000000000      7.540000000000001      3.770000000000000
Pt      7.540000000000001      3.770000000000000      3.770000000000000
Pt      7.540000000000001      5.654999999999999      1.885000000000000
Pt      5.654999999999999      7.540000000000001      1.885000000000000
Pt      3.770000000000000      3.770000000000000      3.770000000000000
Pt      3.770000000000000      5.654999999999999      1.885000000000000
Pt      1.885000000000000      5.654999999999999      3.770000000000000
Pt      5.654999999999999      3.770000000000000      1.885000000000000
Pt      5.654999999999999      1.885000000000000      3.770000000000000
Pt      1.885000000000000      7.540000000000001      1.885000000000000
Pt      7.540000000000001      1.885000000000000      1.885000000000000
Pt      5.654999999999999      5.654999999999999      0.000000000000000
Pt      0.000000000000000      7.540000000000001      3.770000000000000
Pt      3.770000000000000      7.540000000000001      0.000000000000000
Pt      7.540000000000001      3.770000000000000      0.000000000000000
Pt      3.770000000000000      1.885000000000000      1.885000000000000
Pt      1.885000000000000      3.770000000000000      1.885000000000000
Pt      1.885000000000000      1.885000000000000      3.770000000000000
Pt      7.540000000000001      5.654999999999999     -1.885000000000000
Pt      5.654999999999999      7.540000000000001     -1.885000000000000
Pt      0.000000000000000      3.770000000000000      3.770000000000000
Pt      3.770000000000000      0.000000000000000      3.770000000000000
Pt      3.770000000000000      3.770000000000000      0.000000000000000
Pt      0.000000000000000      5.654999999999999      1.885000000000000
Pt      1.885000000000000      5.654999999999999      0.000000000000000
Pt      5.654999999999999      0.000000000000000      1.885000000000000
Pt      5.654999999999999      1.885000000000000      0.000000000000000
Pt     -1.885000000000000      5.654999999999999      3.770000000000000
Pt      3.770000000000000      5.654999999999999     -1.885000000000000
Pt      5.654999999999999      3.770000000000000     -1.885000000000000
Pt      0.000000000000000      7.540000000000001      0.000000000000000
Pt      7.540000000000001      0.000000000000000      0.000000000000000
Pt     -1.885000000000000      7.540000000000001      1.885000000000000
Pt      1.885000000000000      7.540000000000001     -1.885000000000000
Pt      7.540000000000001      1.885000000000000     -1.885000000000000
Pt      0.000000000000000      1.885000000000000      1.885000000000000
Pt      1.885000000000000      0.000000000000000      1.885000000000000
Pt      1.885000000000000      1.885000000000000      0.000000000000000
Pt      5.654999999999999      5.654999999999999     -3.770000000000000
Pt      0.000000000000000      0.000000000000000      3.770000000000000
Pt      0.000000000000000      3.770000000000000      0.000000000000000
Pt      3.770000000000000      0.000000000000000      0.000000000000000
Pt      3.770000000000000      7.540000000000001     -3.770000000000000
Pt     -1.885000000000000      3.770000000000000      1.885000000000000
Pt     -1.885000000000000      1.885000000000000      3.770000000000000
Pt      3.770000000000000     -1.885000000000000      1.885000000000000
Pt      1.885000000000000     -1.885000000000000      3.770000000000000
Pt      3.770000000000000      1.885000000000000     -1.885000000000000
Pt      1.885000000000000      3.770000000000000     -1.885000000000000
Pt      0.000000000000000      5.654999999999999     -1.885000000000000
Pt     -1.885000000000000      5.654999999999999      0.000000000000000
Pt      5.654999999999999      0.000000000000000     -1.885000000000000
Pt      5.654999999999999     -1.885000000000000      0.000000000000000
Pt      3.770000000000000      3.770000000000000     -3.770000000000000
Pt     -3.770000000000000      5.654999999999999      1.885000000000000
Pt      1.885000000000000      5.654999999999999     -3.770000000000000
Pt      5.654999999999999      1.885000000000000     -3.770000000000000
Pt      0.000000000000000      0.000000000000000      0.000000000000000
Pt      0.000000000000000     -1.885000000000000      1.885000000000000
Pt     -1.885000000000000      0.000000000000000      1.885000000000000
Pt      0.000000000000000      1.885000000000000     -1.885000000000000
Pt     -1.885000000000000      1.885000000000000      0.000000000000000
Pt      1.885000000000000      0.000000000000000     -1.885000000000000
Pt      1.885000000000000     -1.885000000000000      0.000000000000000
Pt     -3.770000000000000      1.885000000000000      1.885000000000000
Pt     -1.885000000000000      3.770000000000000     -1.885000000000000
Pt      1.885000000000000     -3.770000000000000      1.885000000000000
Pt      3.770000000000000     -1.885000000000000     -1.885000000000000
Pt      1.885000000000000      1.885000000000000     -3.770000000000000
Pt     -3.770000000000000      3.770000000000000      0.000000000000000
Pt      0.000000000000000      3.770000000000000     -3.770000000000000
Pt      3.770000000000000     -3.770000000000000      0.000000000000000
Pt      3.770000000000000      0.000000000000000     -3.770000000000000
Pt      5.654999999999999     -1.885000000000000     -3.770000000000000
Pt      0.000000000000000     -1.885000000000000     -1.885000000000000
Pt     -1.885000000000000      0.000000000000000     -1.885000000000000
Pt     -1.885000000000000     -1.885000000000000      0.000000000000000
Pt     -3.770000000000000      0.000000000000000      0.000000000000000
Pt      0.000000000000000     -3.770000000000000      0.000000000000000
Pt      0.000000000000000      0.000000000000000     -3.770000000000000
Pt     -3.770000000000000      1.885000000000000     -1.885000000000000
Pt     -1.885000000000000      1.885000000000000     -3.770000000000000
Pt      1.885000000000000     -3.770000000000000     -1.885000000000000
Pt      1.885000000000000     -1.885000000000000     -3.770000000000000
Pt      3.770000000000000     -3.770000000000000     -3.770000000000000
