80

Pt      0.000000000000000     -1.885000000000000     -0.000000000000000
Pt      0.000000000000000      0.000000000000000     -1.885000000000000
Pt     -1.885000000000000      0.000000000000000     -0.000000000000000
Pt      1.885000000000000      0.000000000000000     -0.000000000000000
Pt      0.000000000000000      1.885000000000000     -0.000000000000000
Pt      0.000000000000000      0.000000000000000      1.885000000000000
Pt     -1.885000000000000     -1.885000000000000     -1.885000000000000
Pt      1.885000000000000     -1.885000000000000     -1.885000000000000
Pt     -1.885000000000000     -1.885000000000000      1.885000000000000
Pt      1.885000000000000     -1.885000000000000      1.885000000000000
Pt     -1.885000000000000      1.885000000000000     -1.885000000000000
Pt      1.885000000000000      1.885000000000000     -1.885000000000000
Pt     -1.885000000000000      1.885000000000000      1.885000000000000
Pt      1.885000000000000      1.885000000000000      1.885000000000000
Pt      0.000000000000000     -1.885000000000000     -3.770000000000000
Pt      0.000000000000000     -3.770000000000000     -1.885000000000000
Pt     -1.885000000000000     -3.770000000000000     -0.000000000000000
Pt      1.885000000000000     -3.770000000000000     -0.000000000000000
Pt      0.000000000000000     -3.770000000000000      1.885000000000000
Pt      0.000000000000000     -1.885000000000000      3.770000000000000
Pt     -1.885000000000000      0.000000000000000     -3.770000000000000
Pt      1.885000000000000      0.000000000000000     -3.770000000000000
Pt      0.000000000000000      1.885000000000000     -3.770000000000000
Pt     -1.885000000000000      0.000000000000000      3.770000000000000
Pt      1.885000000000000      0.000000000000000      3.770000000000000
Pt      0.000000000000000      1.885000000000000      3.770000000000000
Pt      0.000000000000000      3.770000000000000     -1.885000000000000
Pt     -1.885000000000000      3.770000000000000     -0.000000000000000
Pt      1.885000000000000      3.770000000000000     -0.000000000000000
Pt      0.000000000000000      3.770000000000000      1.885000000000000
Pt      0.000000000000000     -5.655000000000000     -0.000000000000000
Pt     -1.885000000000000     -3.770000000000000     -3.770000000000000
Pt      1.885000000000000     -3.770000000000000     -3.770000000000000
Pt     -1.885000000000000     -3.770000000000000      3.770000000000000
Pt      1.885000000000000     -3.770000000000000      3.770000000000000
Pt      0.000000000000000      0.000000000000000     -5.655000000000000
Pt      0.000000000000000      0.000000000000000      5.655000000000000
Pt     -1.885000000000000      3.770000000000000     -3.770000000000000
Pt      1.885000000000000      3.770000000000000     -3.770000000000000
Pt      0.000000000000000      5.655000000000000     -0.000000000000000
Pt     -1.885000000000000      3.770000000000000      3.770000000000000
Pt      1.885000000000000      3.770000000000000      3.770000000000000
Pt     -1.885000000000000     -5.655000000000000     -1.885000000000000
Pt      1.885000000000000     -5.655000000000000     -1.885000000000000
Pt     -1.885000000000000     -5.655000000000000      1.885000000000000
Pt      1.885000000000000     -5.655000000000000      1.885000000000000
Pt     -1.885000000000000     -1.885000000000000     -5.655000000000000
Pt      1.885000000000000     -1.885000000000000     -5.655000000000000
Pt     -1.885000000000000     -1.885000000000000      5.655000000000000
Pt      1.885000000000000     -1.885000000000000      5.655000000000000
Pt     -1.885000000000000      1.885000000000000     -5.655000000000000
Pt      1.885000000000000      1.885000000000000     -5.655000000000000
Pt     -1.885000000000000      1.885000000000000      5.655000000000000
Pt      1.885000000000000      1.885000000000000      5.655000000000000
Pt     -1.885000000000000      5.655000000000000     -1.885000000000000
Pt      1.885000000000000      5.655000000000000     -1.885000000000000
Pt     -1.885000000000000      5.655000000000000      1.885000000000000
Pt      1.885000000000000      5.655000000000000      1.885000000000000
Pt      0.000000000000000     -5.655000000000000     -3.770000000000000
Pt      0.000000000000000     -5.655000000000000      3.770000000000000
Pt      0.000000000000000     -3.770000000000000     -5.655000000000000
Pt      0.000000000000000     -3.770000000000000      5.655000000000000
Pt      0.000000000000000      3.770000000000000     -5.655000000000000
Pt      0.000000000000000      5.655000000000000     -3.770000000000000
Pt      0.000000000000000      5.655000000000000      3.770000000000000
Pt      0.000000000000000      3.770000000000000      5.655000000000000
Pt      0.000000000000000     -7.540000000000000     -1.885000000000000
Pt     -1.885000000000000     -7.540000000000000     -0.000000000000000
Pt      1.885000000000000     -7.540000000000000     -0.000000000000000
Pt      0.000000000000000     -7.540000000000000      1.885000000000000
Pt      0.000000000000000     -1.885000000000000     -7.540000000000000
Pt      0.000000000000000     -1.885000000000000      7.540000000000000
Pt     -1.885000000000000      0.000000000000000     -7.540000000000000
Pt      1.885000000000000      0.000000000000000     -7.540000000000000
Pt      0.000000000000000      1.885000000000000     -7.540000000000000
Pt     -1.885000000000000      0.000000000000000      7.540000000000000
Pt      1.885000000000000      0.000000000000000      7.540000000000000
Pt      0.000000000000000      1.885000000000000      7.540000000000000
Pt      0.000000000000000      7.540000000000000     -1.885000000000000
Pt     -1.885000000000000      7.540000000000000     -0.000000000000000
