27

Pt     -3.770000000000000      0.000000000000000      3.770000000000000
Pt     -3.770000000000000      3.770000000000000      0.000000000000000
Pt     -3.770000000000000      1.885000000000002      1.885000000000002
Pt     -5.654999999999998      3.770000000000000      1.885000000000002
Pt     -3.770000000000000      5.655000000000001     -1.884999999999998
Pt     -5.654999999999998      5.655000000000001      0.000000000000000
Pt      0.000000000000000     -3.770000000000000      3.770000000000000
Pt     -1.884999999999998     -3.770000000000000      5.655000000000001
Pt      0.000000000000000      0.000000000000000      0.000000000000000
Pt      0.000000000000000     -1.884999999999998      1.885000000000002
Pt     -1.884999999999998      0.000000000000000      1.885000000000002
Pt     -1.884999999999998     -1.884999999999998      3.770000000000000
Pt      0.000000000000000      1.885000000000002     -1.884999999999998
Pt     -1.884999999999998      3.770000000000000     -1.884999999999998
Pt     -1.884999999999998      1.885000000000002      0.000000000000000
Pt      1.885000000000002     -3.770000000000000      1.885000000000002
Pt      1.885000000000002      0.000000000000000     -1.884999999999998
Pt      1.885000000000002     -1.884999999999998      0.000000000000000
Pt      0.000000000000000      0.000000000000000      0.000000000000000
Pt      0.000000000000000     -1.884999999999998      1.885000000000002
Pt     -1.884999999999998      0.000000000000000      1.885000000000002
Pt      0.000000000000000      3.770000000000001     -3.770000000000001
Pt      0.000000000000000      1.885000000000002     -1.884999999999998
Pt     -1.884999999999998      3.770000000000000     -1.884999999999998
Pt     -1.884999999999998      1.885000000000002      0.000000000000000
Pt      1.885000000000002      0.000000000000000     -1.884999999999998
Pt      1.885000000000002     -1.884999999999998      0.000000000000000
