85

Pt     -5.654999999999953     -1.884999999999945     -1.884999999999959
Pt     -5.654999999999953     -1.884999999999945      1.885000000000041
Pt     -5.654999999999953     -3.769999999999946      0.000000000000043
Pt     -5.654999999999953      1.885000000000055     -1.884999999999959
Pt     -5.654999999999953      0.000000000000057     -3.769999999999960
Pt     -5.654999999999953      1.885000000000055      1.885000000000041
Pt     -5.654999999999953      0.000000000000057      0.000000000000043
Pt     -5.654999999999953      0.000000000000057      3.770000000000042
Pt     -5.654999999999953      3.770000000000056      0.000000000000043
Pt     -1.884999999999952     -5.654999999999946     -1.884999999999959
Pt     -1.884999999999952     -5.654999999999946      1.885000000000041
Pt     -3.769999999999953     -5.654999999999946      0.000000000000043
Pt     -1.884999999999952     -1.884999999999945     -5.654999999999960
Pt     -1.884999999999952     -1.884999999999945     -1.884999999999959
Pt     -1.884999999999952     -3.769999999999946     -3.769999999999960
Pt     -3.769999999999953     -1.884999999999945     -3.769999999999960
Pt     -3.769999999999953     -3.769999999999946     -1.884999999999959
Pt     -1.884999999999952     -1.884999999999945      1.885000000000041
Pt     -1.884999999999952     -3.769999999999946      0.000000000000043
Pt     -3.769999999999953     -1.884999999999945      0.000000000000043
Pt     -3.769999999999953     -3.769999999999946      1.885000000000041
Pt     -1.884999999999952     -3.769999999999946      3.770000000000042
Pt     -3.769999999999953     -1.884999999999945      3.770000000000042
Pt     -1.884999999999952      1.885000000000055     -5.654999999999960
Pt     -3.769999999999953      0.000000000000057     -5.654999999999960
Pt     -1.884999999999952      1.885000000000055     -1.884999999999959
Pt     -1.884999999999952      0.000000000000057     -3.769999999999960
Pt     -3.769999999999953      1.885000000000055     -3.769999999999960
Pt     -3.769999999999953      0.000000000000057     -1.884999999999959
Pt     -1.884999999999952      1.885000000000055      1.885000000000041
Pt     -1.884999999999952      0.000000000000057      0.000000000000043
Pt     -3.769999999999953      1.885000000000055      0.000000000000043
Pt     -3.769999999999953      0.000000000000057      1.885000000000041
Pt     -1.884999999999952      0.000000000000057      3.770000000000042
Pt     -3.769999999999953      1.885000000000055      3.770000000000042
Pt     -1.884999999999952      3.770000000000056     -3.769999999999960
Pt     -3.769999999999953      3.770000000000056     -1.884999999999959
Pt     -1.884999999999952      3.770000000000056      0.000000000000043
Pt     -3.769999999999953      3.770000000000056      1.885000000000041
Pt      1.885000000000048     -5.654999999999946     -1.884999999999959
Pt      0.000000000000050     -5.654999999999946     -3.769999999999960
Pt      1.885000000000048     -5.654999999999946      1.885000000000041
Pt      0.000000000000050     -5.654999999999946      0.000000000000043
Pt      0.000000000000050     -5.654999999999946      3.770000000000042
Pt      1.885000000000048     -1.884999999999945     -5.654999999999960
Pt      0.000000000000050     -3.769999999999946     -5.654999999999960
Pt      1.885000000000048     -1.884999999999945     -1.884999999999959
Pt      1.885000000000048     -3.769999999999946     -3.769999999999960
Pt      0.000000000000050     -1.884999999999945     -3.769999999999960
Pt      0.000000000000050     -3.769999999999946     -1.884999999999959
Pt      1.885000000000048     -1.884999999999945      1.885000000000041
Pt      1.885000000000048     -3.769999999999946      0.000000000000043
Pt      0.000000000000050     -1.884999999999945      0.000000000000043
Pt      0.000000000000050     -3.769999999999946      1.885000000000041
Pt      1.885000000000048     -3.769999999999946      3.770000000000042
Pt      0.000000000000050     -1.884999999999945      3.770000000000042
Pt      1.885000000000048      1.885000000000055     -5.654999999999960
Pt      0.000000000000050      0.000000000000057     -5.654999999999960
Pt      1.885000000000048      1.885000000000055     -1.884999999999959
Pt      1.885000000000048      0.000000000000057     -3.769999999999960
Pt      0.000000000000050      1.885000000000055     -3.769999999999960
Pt      0.000000000000050      0.000000000000057     -1.884999999999959
Pt      1.885000000000048      1.885000000000055      1.885000000000041
Pt      1.885000000000048      0.000000000000057      0.000000000000043
Pt      0.000000000000050      1.885000000000055      0.000000000000043
Pt      0.000000000000050      0.000000000000057      1.885000000000041
Pt      1.885000000000048      0.000000000000057      3.770000000000042
Pt      0.000000000000050      1.885000000000055      3.770000000000042
Pt      1.885000000000048      3.770000000000056     -3.769999999999960
Pt      0.000000000000050      3.770000000000056     -1.884999999999959
Pt      1.885000000000048      3.770000000000056      0.000000000000043
Pt      0.000000000000050      3.770000000000056      1.885000000000041
Pt      3.770000000000049     -5.654999999999946      0.000000000000043
Pt      3.770000000000049     -1.884999999999945     -3.769999999999960
Pt      3.770000000000049     -3.769999999999946     -1.884999999999959
Pt      3.770000000000049     -1.884999999999945      0.000000000000043
Pt      3.770000000000049     -3.769999999999946      1.885000000000041
Pt      3.770000000000049     -1.884999999999945      3.770000000000042
Pt      3.770000000000049      1.885000000000055     -3.769999999999960
Pt      3.770000000000049      0.000000000000057     -1.884999999999959
Pt      3.770000000000049      1.885000000000055      0.000000000000043
Pt      3.770000000000049      0.000000000000057      1.885000000000041
Pt      3.770000000000049      1.885000000000055      3.770000000000042
Pt      3.770000000000049      3.770000000000056     -1.884999999999959
Pt      3.770000000000049      3.770000000000056      1.885000000000041
