86

Pt      1.885000000000048     -1.884999999999945     -1.884999999999959
Pt      1.885000000000048      1.885000000000055     -1.884999999999959
Pt      1.885000000000048      0.000000000000057     -3.769999999999960
Pt      0.000000000000050      1.885000000000055     -3.769999999999960
Pt      0.000000000000050      0.000000000000057     -1.884999999999959
Pt      1.885000000000048      1.885000000000055      1.885000000000041
Pt      1.885000000000048      0.000000000000057      0.000000000000043
Pt      0.000000000000050      1.885000000000055      0.000000000000043
Pt      1.885000000000048      5.655000000000054     -1.884999999999959
Pt      1.885000000000048      3.770000000000056     -3.769999999999960
Pt      0.000000000000050      3.770000000000056     -1.884999999999959
Pt      1.885000000000048      5.655000000000054      1.885000000000041
Pt      1.885000000000048      3.770000000000056      0.000000000000043
Pt      0.000000000000050      5.655000000000054      0.000000000000043
Pt      0.000000000000050      3.770000000000056      1.885000000000041
Pt      1.885000000000048      9.425000000000054      1.885000000000041
Pt      1.885000000000048      7.540000000000056      0.000000000000043
Pt      0.000000000000050      7.540000000000056      1.885000000000041
Pt      1.885000000000048      9.425000000000054      5.655000000000040
Pt      1.885000000000048      7.540000000000056      3.770000000000042
Pt      0.000000000000050      9.425000000000054      3.770000000000042
Pt      1.885000000000048     11.310000000000056      3.770000000000042
Pt      5.655000000000047     -1.884999999999945     -1.884999999999959
Pt      3.770000000000049     -1.884999999999945     -3.769999999999960
Pt      3.770000000000049     -3.769999999999946     -1.884999999999959
Pt      5.655000000000047     -3.769999999999946      0.000000000000043
Pt      3.770000000000049     -1.884999999999945      0.000000000000043
Pt      5.655000000000047      1.885000000000055     -1.884999999999959
Pt      5.655000000000047      0.000000000000057     -3.769999999999960
Pt      3.770000000000049      1.885000000000055     -3.769999999999960
Pt      3.770000000000049      0.000000000000057     -1.884999999999959
Pt      5.655000000000047      1.885000000000055      1.885000000000041
Pt      5.655000000000047      0.000000000000057      0.000000000000043
Pt      3.770000000000049      1.885000000000055      0.000000000000043
Pt      3.770000000000049      0.000000000000057      1.885000000000041
Pt      5.655000000000047      5.655000000000054     -1.884999999999959
Pt      5.655000000000047      3.770000000000056     -3.769999999999960
Pt      3.770000000000049      3.770000000000056     -1.884999999999959
Pt      5.655000000000047      5.655000000000054      1.885000000000041
Pt      5.655000000000047      3.770000000000056      0.000000000000043
Pt      3.770000000000049      5.655000000000054      0.000000000000043
Pt      3.770000000000049      3.770000000000056      1.885000000000041
Pt      5.655000000000047      5.655000000000054      5.655000000000040
Pt      5.655000000000047      3.770000000000056      3.770000000000042
Pt      3.770000000000049      5.655000000000054      3.770000000000042
Pt      5.655000000000047      9.425000000000054      1.885000000000041
Pt      5.655000000000047      7.540000000000056      0.000000000000043
Pt      3.770000000000049      7.540000000000056      1.885000000000041
Pt      5.655000000000047      9.425000000000054      5.655000000000040
Pt      5.655000000000047      7.540000000000056      3.770000000000042
Pt      3.770000000000049      9.425000000000054      3.770000000000042
Pt      3.770000000000049      7.540000000000056      5.655000000000040
Pt      3.770000000000049     11.310000000000056      5.655000000000040
Pt      9.425000000000047     -1.884999999999945     -1.884999999999959
Pt      7.540000000000049     -3.769999999999946     -1.884999999999959
Pt      9.425000000000047     -1.884999999999945      1.885000000000041
Pt      7.540000000000049     -1.884999999999945      0.000000000000043
Pt      9.425000000000047      1.885000000000055     -1.884999999999959
Pt      7.540000000000049      1.885000000000055     -3.769999999999960
Pt      7.540000000000049      0.000000000000057     -1.884999999999959
Pt      9.425000000000047      1.885000000000055      1.885000000000041
Pt      9.425000000000047      0.000000000000057      0.000000000000043
Pt      7.540000000000049      1.885000000000055      0.000000000000043
Pt      7.540000000000049      0.000000000000057      1.885000000000041
Pt      9.425000000000047      1.885000000000055      5.655000000000040
Pt      9.425000000000047      0.000000000000057      3.770000000000042
Pt      7.540000000000049      1.885000000000055      3.770000000000042
Pt      9.425000000000047      5.655000000000054     -1.884999999999959
Pt      7.540000000000049      3.770000000000056     -1.884999999999959
Pt      9.425000000000047      5.655000000000054      1.885000000000041
Pt      9.425000000000047      3.770000000000056      0.000000000000043
Pt      7.540000000000049      5.655000000000054      0.000000000000043
Pt      7.540000000000049      3.770000000000056      1.885000000000041
Pt      9.425000000000047      5.655000000000054      5.655000000000040
Pt      9.425000000000047      3.770000000000056      3.770000000000042
Pt      7.540000000000049      5.655000000000054      3.770000000000042
Pt      7.540000000000049      3.770000000000056      5.655000000000040
Pt      7.540000000000049      7.540000000000056      1.885000000000041
Pt      7.540000000000049      7.540000000000056      5.655000000000040
Pt     11.310000000000048     -1.884999999999945      0.000000000000043
Pt     11.310000000000048      0.000000000000057     -1.884999999999959
Pt     11.310000000000048      1.885000000000055      0.000000000000043
Pt     11.310000000000048      0.000000000000057      1.885000000000041
Pt     11.310000000000048      1.885000000000055      3.770000000000042
Pt     11.310000000000048      3.770000000000056     -1.884999999999959
Pt     11.310000000000048      3.770000000000056      1.885000000000041
