13

Pt      1.885000000000000      1.885000000000000      0.000000000000000
Pt      0.000000000000000      3.770000000000000      0.000000000000000
Pt      3.770000000000000      0.000000000000000      0.000000000000000
Pt      3.770000000000000      1.885000000000000     -1.885000000000000
Pt      1.885000000000000      3.770000000000000     -1.885000000000000
Pt      3.770000000000000      3.770000000000000     -3.770000000000000
Pt      0.000000000000000      0.000000000000000      0.000000000000000
Pt      0.000000000000000      1.885000000000000     -1.885000000000000
Pt      1.885000000000000      0.000000000000000     -1.885000000000000
Pt      1.885000000000000      1.885000000000000     -3.770000000000000
Pt      0.000000000000000      3.770000000000000     -3.770000000000000
Pt      3.770000000000000      0.000000000000000     -3.770000000000000
Pt      0.000000000000000      0.000000000000000     -3.770000000000000
