98

Pt     -9.424999999999953     -9.424999999999946     -1.884999999999959
Pt     -9.424999999999953     -5.654999999999946     -1.884999999999959
Pt     -9.424999999999953     -1.884999999999945     -1.884999999999959
Pt     -9.424999999999953      1.885000000000055     -1.884999999999959
Pt     -9.424999999999953      5.655000000000054     -1.884999999999959
Pt     -9.424999999999953      9.425000000000054     -1.884999999999959
Pt     -5.654999999999953     -5.654999999999946     -1.884999999999959
Pt     -7.539999999999953     -7.539999999999946     -1.884999999999959
Pt     -5.654999999999953     -1.884999999999945     -1.884999999999959
Pt     -7.539999999999953     -3.769999999999946     -1.884999999999959
Pt     -5.654999999999953      1.885000000000055     -1.884999999999959
Pt     -7.539999999999953      0.000000000000057     -1.884999999999959
Pt     -5.654999999999953      5.655000000000054     -1.884999999999959
Pt     -7.539999999999953      3.770000000000056     -1.884999999999959
Pt     -5.654999999999953      9.425000000000054     -1.884999999999959
Pt     -7.539999999999953      7.540000000000056     -1.884999999999959
Pt     -5.654999999999953     13.195000000000054     -1.884999999999959
Pt     -7.539999999999953     11.310000000000056     -1.884999999999959
Pt     -1.884999999999952     -1.884999999999945     -1.884999999999959
Pt     -3.769999999999953     -3.769999999999946     -1.884999999999959
Pt     -1.884999999999952      1.885000000000055     -1.884999999999959
Pt     -3.769999999999953      0.000000000000057     -1.884999999999959
Pt     -1.884999999999952      5.655000000000054     -1.884999999999959
Pt     -3.769999999999953      3.770000000000056     -1.884999999999959
Pt     -1.884999999999952      9.425000000000054     -1.884999999999959
Pt     -3.769999999999953      7.540000000000056     -1.884999999999959
Pt     -1.884999999999952     13.195000000000054     -1.884999999999959
Pt     -3.769999999999953     11.310000000000056     -1.884999999999959
Pt     -1.884999999999952     16.965000000000057     -1.884999999999959
Pt     -3.769999999999953     15.080000000000052     -1.884999999999959
Pt      0.000000000000050     -9.424999999999946     -3.769999999999960
Pt      1.885000000000048     -7.539999999999946     -3.769999999999960
Pt      0.000000000000050     -5.654999999999946     -3.769999999999960
Pt      1.885000000000048     -3.769999999999946     -3.769999999999960
Pt      0.000000000000050     -1.884999999999945     -3.769999999999960
Pt      1.885000000000048      1.885000000000055     -1.884999999999959
Pt      1.885000000000048      0.000000000000057     -3.769999999999960
Pt      0.000000000000050      1.885000000000055     -3.769999999999960
Pt      0.000000000000050      0.000000000000057     -1.884999999999959
Pt      1.885000000000048      5.655000000000054     -1.884999999999959
Pt      1.885000000000048      3.770000000000056     -3.769999999999960
Pt      0.000000000000050      5.655000000000054     -3.769999999999960
Pt      0.000000000000050      3.770000000000056     -1.884999999999959
Pt      1.885000000000048      9.425000000000054     -1.884999999999959
Pt      1.885000000000048      7.540000000000056     -3.769999999999960
Pt      0.000000000000050      7.540000000000056     -1.884999999999959
Pt      1.885000000000048     13.195000000000054     -1.884999999999959
Pt      0.000000000000050     11.310000000000056     -1.884999999999959
Pt      1.885000000000048     16.965000000000057     -1.884999999999959
Pt      0.000000000000050     15.080000000000052     -1.884999999999959
Pt      1.885000000000048     20.735000000000060     -1.884999999999959
Pt      0.000000000000050     18.850000000000055     -1.884999999999959
Pt      3.770000000000049     -5.654999999999946     -3.769999999999960
Pt      5.655000000000047     -3.769999999999946     -3.769999999999960
Pt      3.770000000000049     -1.884999999999945     -3.769999999999960
Pt      5.655000000000047      0.000000000000057     -3.769999999999960
Pt      3.770000000000049      1.885000000000055     -3.769999999999960
Pt      5.655000000000047      3.770000000000056     -3.769999999999960
Pt      3.770000000000049      5.655000000000054     -3.769999999999960
Pt      5.655000000000047      7.540000000000056     -3.769999999999960
Pt      3.770000000000049      9.425000000000054     -3.769999999999960
Pt      5.655000000000047     11.310000000000056     -3.769999999999960
Pt      9.425000000000047     -9.424999999999946     -5.654999999999960
Pt      9.425000000000047     -5.654999999999946     -5.654999999999960
Pt      9.425000000000047     -1.884999999999945     -5.654999999999960
Pt      7.540000000000049     -1.884999999999945     -3.769999999999960
Pt      9.425000000000047      1.885000000000055     -5.654999999999960
Pt      9.425000000000047      0.000000000000057     -3.769999999999960
Pt      7.540000000000049      1.885000000000055     -3.769999999999960
Pt      9.425000000000047      3.770000000000056     -3.769999999999960
Pt      7.540000000000049      5.655000000000054     -3.769999999999960
Pt      9.425000000000047      7.540000000000056     -3.769999999999960
Pt      7.540000000000049      9.425000000000054     -3.769999999999960
Pt      9.425000000000047     11.310000000000056     -3.769999999999960
Pt      7.540000000000049     13.195000000000054     -3.769999999999960
Pt      9.425000000000047     15.080000000000052     -3.769999999999960
Pt     13.195000000000046     -5.654999999999946     -5.654999999999960
Pt     11.310000000000048     -7.539999999999946     -5.654999999999960
Pt     13.195000000000046     -1.884999999999945     -5.654999999999960
Pt     11.310000000000048     -3.769999999999946     -5.654999999999960
Pt     13.195000000000046      1.885000000000055     -5.654999999999960
Pt     11.310000000000048      0.000000000000057     -5.654999999999960
Pt     13.195000000000046      5.655000000000054     -5.654999999999960
Pt     11.310000000000048      3.770000000000056     -5.654999999999960
Pt     16.965000000000050     -1.884999999999945     -5.654999999999960
Pt     15.080000000000044     -3.769999999999946     -5.654999999999960
Pt     16.965000000000050      1.885000000000055     -5.654999999999960
Pt     15.080000000000044      0.000000000000057     -5.654999999999960
Pt     16.965000000000050      5.655000000000054     -5.654999999999960
Pt     15.080000000000044      3.770000000000056     -5.654999999999960
Pt     16.965000000000050      9.425000000000054     -5.654999999999960
Pt     15.080000000000044      7.540000000000056     -5.654999999999960
Pt     18.850000000000048     -9.424999999999946     -7.539999999999960
Pt     20.735000000000053     -7.539999999999946     -7.539999999999960
Pt     18.850000000000048     -5.654999999999946     -7.539999999999960
Pt     20.735000000000053     -3.769999999999946     -7.539999999999960
Pt     18.850000000000048     -1.884999999999945     -7.539999999999960
Pt     20.735000000000053      0.000000000000057     -7.539999999999960
