84

Pt     -5.886000000001575      1.962000000000369      1.962000000000430
Pt     -5.886000000001575      1.962000000000369      5.886000000000429
Pt     -5.886000000001575      5.886000000000369      1.962000000000430
Pt     -5.886000000001575      5.886000000000369      5.886000000000429
Pt     -5.886000000001575      3.924000000000369      3.924000000000429
Pt     -5.886000000001575      3.924000000000369      7.848000000000429
Pt     -5.886000000001575      9.810000000000368      1.962000000000430
Pt     -5.886000000001575      9.810000000000368      5.886000000000429
Pt     -5.886000000001575      7.848000000000368      3.924000000000429
Pt     -5.886000000001575      7.848000000000368      7.848000000000429
Pt     -1.962000000001574      1.962000000000369      1.962000000000430
Pt     -1.962000000001574      0.000000000000369      0.000000000000430
Pt     -3.924000000001573      1.962000000000369      0.000000000000430
Pt     -3.924000000001573      0.000000000000369      1.962000000000430
Pt     -1.962000000001574      1.962000000000369      5.886000000000429
Pt     -1.962000000001574      0.000000000000369      3.924000000000429
Pt     -3.924000000001573      1.962000000000369      3.924000000000429
Pt     -3.924000000001573      0.000000000000369      5.886000000000429
Pt     -1.962000000001574      1.962000000000369      9.810000000000429
Pt     -1.962000000001574      0.000000000000369      7.848000000000429
Pt     -3.924000000001573      1.962000000000369      7.848000000000429
Pt     -1.962000000001574      5.886000000000369      1.962000000000430
Pt     -1.962000000001574      3.924000000000369      0.000000000000430
Pt     -3.924000000001573      5.886000000000369      0.000000000000430
Pt     -3.924000000001573      3.924000000000369      1.962000000000430
Pt     -1.962000000001574      5.886000000000369      5.886000000000429
Pt     -1.962000000001574      3.924000000000369      3.924000000000429
Pt     -3.924000000001573      5.886000000000369      3.924000000000429
Pt     -3.924000000001573      3.924000000000369      5.886000000000429
Pt     -1.962000000001574      5.886000000000369      9.810000000000429
Pt     -1.962000000001574      3.924000000000369      7.848000000000429
Pt     -3.924000000001573      5.886000000000369      7.848000000000429
Pt     -3.924000000001573      3.924000000000369      9.810000000000429
Pt     -1.962000000001574      9.810000000000368      1.962000000000430
Pt     -1.962000000001574      7.848000000000368      0.000000000000430
Pt     -3.924000000001573      9.810000000000368      0.000000000000430
Pt     -3.924000000001573      7.848000000000368      1.962000000000430
Pt     -1.962000000001574      9.810000000000368      5.886000000000429
Pt     -1.962000000001574      7.848000000000368      3.924000000000429
Pt     -3.924000000001573      9.810000000000368      3.924000000000429
Pt     -3.924000000001573      7.848000000000368      5.886000000000429
Pt     -1.962000000001574      9.810000000000368      9.810000000000429
Pt     -1.962000000001574      7.848000000000368      7.848000000000429
Pt     -3.924000000001573      9.810000000000368      7.848000000000429
Pt     -3.924000000001573      7.848000000000368      9.810000000000429
Pt      1.961999999998426      1.962000000000369      1.962000000000430
Pt      1.961999999998426      0.000000000000369      0.000000000000430
Pt     -0.000000000001574      1.962000000000369      0.000000000000430
Pt     -0.000000000001574      0.000000000000369      1.962000000000430
Pt      1.961999999998426      1.962000000000369      5.886000000000429
Pt      1.961999999998426      0.000000000000369      3.924000000000429
Pt     -0.000000000001574      1.962000000000369      3.924000000000429
Pt     -0.000000000001574      0.000000000000369      5.886000000000429
Pt      1.961999999998426      1.962000000000369      9.810000000000429
Pt      1.961999999998426      0.000000000000369      7.848000000000429
Pt     -0.000000000001574      1.962000000000369      7.848000000000429
Pt      1.961999999998426      5.886000000000369      1.962000000000430
Pt      1.961999999998426      3.924000000000369      0.000000000000430
Pt     -0.000000000001574      5.886000000000369      0.000000000000430
Pt     -0.000000000001574      3.924000000000369      1.962000000000430
Pt      1.961999999998426      5.886000000000369      5.886000000000429
Pt      1.961999999998426      3.924000000000369      3.924000000000429
Pt     -0.000000000001574      5.886000000000369      3.924000000000429
Pt     -0.000000000001574      3.924000000000369      5.886000000000429
Pt      1.961999999998426      5.886000000000369      9.810000000000429
Pt      1.961999999998426      3.924000000000369      7.848000000000429
Pt     -0.000000000001574      5.886000000000369      7.848000000000429
Pt     -0.000000000001574      3.924000000000369      9.810000000000429
Pt      1.961999999998426      7.848000000000368      0.000000000000430
Pt     -0.000000000001574      9.810000000000368      0.000000000000430
Pt     -0.000000000001574      7.848000000000368      1.962000000000430
Pt      1.961999999998426      7.848000000000368      3.924000000000429
Pt     -0.000000000001574      9.810000000000368      3.924000000000429
Pt     -0.000000000001574      7.848000000000368      5.886000000000429
Pt     -0.000000000001574      9.810000000000368      7.848000000000429
Pt     -0.000000000001574      7.848000000000368      9.810000000000429
Pt      3.923999999998426      1.962000000000369      0.000000000000430
Pt      3.923999999998426      0.000000000000369      1.962000000000430
Pt      3.923999999998426      1.962000000000369      3.924000000000429
Pt      3.923999999998426      0.000000000000369      5.886000000000429
Pt      3.923999999998426      1.962000000000369      7.848000000000429
Pt      3.923999999998426      5.886000000000369      0.000000000000430
Pt      3.923999999998426      3.924000000000369      1.962000000000430
Pt      3.923999999998426      3.924000000000369      5.886000000000429
