27

Pt      5.885999999998425     -1.961999999999630     -1.961999999999570
Pt      5.885999999998425      0.000000000000369     -3.923999999999570
Pt      3.923999999998426      1.962000000000369     -3.923999999999570
Pt      5.885999999998425      3.924000000000369     -3.923999999999570
Pt      7.847999999998425     -5.885999999999632      0.000000000000430
Pt      9.809999999998425     -1.961999999999630     -1.961999999999570
Pt      7.847999999998425     -1.961999999999630     -3.923999999999570
Pt      7.847999999998425     -3.923999999999630     -1.961999999999570
Pt      9.809999999998425     -3.923999999999630      0.000000000000430
Pt      9.809999999998425      1.962000000000369     -1.961999999999570
Pt      9.809999999998425      0.000000000000369     -3.923999999999570
Pt      7.847999999998425      1.962000000000369     -3.923999999999570
Pt      7.847999999998425      0.000000000000369     -1.961999999999570
Pt      9.809999999998425      0.000000000000369      0.000000000000430
Pt      9.809999999998425      5.886000000000369     -1.961999999999570
Pt      9.809999999998425      3.924000000000369     -3.923999999999570
Pt      7.847999999998425      5.886000000000369     -3.923999999999570
Pt      7.847999999998425      3.924000000000369     -1.961999999999570
Pt     13.733999999998428     -1.961999999999630      1.962000000000430
Pt     11.771999999998425     -1.961999999999630      0.000000000000430
Pt     11.771999999998425     -3.923999999999630      1.962000000000430
Pt     13.733999999998428      1.962000000000369     -1.961999999999570
Pt     11.771999999998425      1.962000000000369     -3.923999999999570
Pt     11.771999999998425      0.000000000000369     -1.961999999999570
Pt     13.733999999998428      0.000000000000369      0.000000000000430
Pt     11.771999999998425      1.962000000000369      0.000000000000430
Pt     11.771999999998425      3.924000000000369     -1.961999999999570
