24

Pt     -1.962000000001574      5.886000000000369     -5.885999999999571
Pt     -1.962000000001574      9.810000000000368     -5.885999999999571
Pt     -0.000000000001574      1.962000000000369     -7.847999999999571
Pt      1.961999999998426      5.886000000000369     -5.885999999999571
Pt      1.961999999998426      3.924000000000369     -7.847999999999571
Pt     -0.000000000001574      5.886000000000369     -7.847999999999571
Pt     -0.000000000001574      3.924000000000369     -5.885999999999571
Pt      1.961999999998426      9.810000000000368     -5.885999999999571
Pt      1.961999999998426      7.848000000000368     -7.847999999999571
Pt     -0.000000000001574      7.848000000000368     -5.885999999999571
Pt      1.961999999998426      7.848000000000368     -3.923999999999570
Pt     -0.000000000001574      9.810000000000368     -3.923999999999570
Pt     -0.000000000001574     11.772000000000368     -5.885999999999571
Pt      1.961999999998426     11.772000000000368     -3.923999999999570
Pt     -0.000000000001574     13.734000000000371     -3.923999999999570
Pt      3.923999999998426      1.962000000000369     -7.847999999999571
Pt      5.885999999998425      5.886000000000369     -5.885999999999571
Pt      3.923999999998426      5.886000000000369     -7.847999999999571
Pt      3.923999999998426      3.924000000000369     -5.885999999999571
Pt      5.885999999998425      9.810000000000368     -5.885999999999571
Pt      3.923999999998426      7.848000000000368     -5.885999999999571
Pt      3.923999999998426      9.810000000000368     -3.923999999999570
Pt      5.885999999998425     11.772000000000368     -3.923999999999570
Pt      7.847999999998425      7.848000000000368     -5.885999999999571
