84

Pt     -5.886000000001575     -1.961999999999630     -1.961999999999570
Pt     -5.886000000001575     -1.961999999999630      1.962000000000430
Pt     -5.886000000001575      1.962000000000369     -1.961999999999570
Pt     -5.886000000001575      1.962000000000369      1.962000000000430
Pt     -5.886000000001575      0.000000000000369      0.000000000000430
Pt     -1.962000000001574     -1.961999999999630     -5.885999999999571
Pt     -1.962000000001574     -1.961999999999630     -1.961999999999570
Pt     -1.962000000001574     -3.923999999999630     -3.923999999999570
Pt     -3.924000000001573     -1.961999999999630     -3.923999999999570
Pt     -3.924000000001573     -3.923999999999630     -1.961999999999570
Pt     -1.962000000001574     -1.961999999999630      1.962000000000430
Pt     -1.962000000001574     -3.923999999999630      0.000000000000430
Pt     -3.924000000001573     -1.961999999999630      0.000000000000430
Pt     -3.924000000001573     -3.923999999999630      1.962000000000430
Pt     -1.962000000001574     -1.961999999999630      5.886000000000429
Pt     -1.962000000001574     -3.923999999999630      3.924000000000429
Pt     -3.924000000001573     -1.961999999999630      3.924000000000429
Pt     -1.962000000001574      1.962000000000369     -5.885999999999571
Pt     -1.962000000001574      1.962000000000369     -1.961999999999570
Pt     -1.962000000001574      0.000000000000369     -3.923999999999570
Pt     -3.924000000001573      1.962000000000369     -3.923999999999570
Pt     -3.924000000001573      0.000000000000369     -1.961999999999570
Pt     -1.962000000001574      1.962000000000369      1.962000000000430
Pt     -1.962000000001574      0.000000000000369      0.000000000000430
Pt     -3.924000000001573      1.962000000000369      0.000000000000430
Pt     -3.924000000001573      0.000000000000369      1.962000000000430
Pt     -1.962000000001574      1.962000000000369      5.886000000000429
Pt     -1.962000000001574      0.000000000000369      3.924000000000429
Pt     -3.924000000001573      1.962000000000369      3.924000000000429
Pt     -1.962000000001574      3.924000000000369     -3.923999999999570
Pt     -3.924000000001573      3.924000000000369     -1.961999999999570
Pt     -1.962000000001574      3.924000000000369      0.000000000000430
Pt     -3.924000000001573      3.924000000000369      1.962000000000430
Pt     -1.962000000001574      3.924000000000369      3.924000000000429
Pt      1.961999999998426     -1.961999999999630     -5.885999999999571
Pt     -0.000000000001574     -3.923999999999630     -5.885999999999571
Pt      1.961999999998426     -1.961999999999630     -1.961999999999570
Pt      1.961999999998426     -3.923999999999630     -3.923999999999570
Pt     -0.000000000001574     -1.961999999999630     -3.923999999999570
Pt     -0.000000000001574     -3.923999999999630     -1.961999999999570
Pt      1.961999999998426     -1.961999999999630      1.962000000000430
Pt      1.961999999998426     -3.923999999999630      0.000000000000430
Pt     -0.000000000001574     -1.961999999999630      0.000000000000430
Pt     -0.000000000001574     -3.923999999999630      1.962000000000430
Pt      1.961999999998426     -1.961999999999630      5.886000000000429
Pt      1.961999999998426     -3.923999999999630      3.924000000000429
Pt     -0.000000000001574     -1.961999999999630      3.924000000000429
Pt      1.961999999998426      1.962000000000369     -5.885999999999571
Pt     -0.000000000001574      0.000000000000369     -5.885999999999571
Pt      1.961999999998426      1.962000000000369     -1.961999999999570
Pt      1.961999999998426      0.000000000000369     -3.923999999999570
Pt     -0.000000000001574      1.962000000000369     -3.923999999999570
Pt     -0.000000000001574      0.000000000000369     -1.961999999999570
Pt      1.961999999998426      1.962000000000369      1.962000000000430
Pt      1.961999999998426      0.000000000000369      0.000000000000430
Pt     -0.000000000001574      1.962000000000369      0.000000000000430
Pt     -0.000000000001574      0.000000000000369      1.962000000000430
Pt      1.961999999998426      1.962000000000369      5.886000000000429
Pt      1.961999999998426      0.000000000000369      3.924000000000429
Pt     -0.000000000001574      1.962000000000369      3.924000000000429
Pt     -0.000000000001574      0.000000000000369      5.886000000000429
Pt     -0.000000000001574      3.924000000000369     -5.885999999999571
Pt      1.961999999998426      3.924000000000369     -3.923999999999570
Pt     -0.000000000001574      3.924000000000369     -1.961999999999570
Pt      1.961999999998426      3.924000000000369      0.000000000000430
Pt     -0.000000000001574      3.924000000000369      1.962000000000430
Pt      1.961999999998426      3.924000000000369      3.924000000000429
Pt      5.885999999998425     -1.961999999999630     -1.961999999999570
Pt      3.923999999998426     -1.961999999999630     -3.923999999999570
Pt      3.923999999998426     -3.923999999999630     -1.961999999999570
Pt      5.885999999998425     -1.961999999999630      1.962000000000430
Pt      3.923999999998426     -1.961999999999630      0.000000000000430
Pt      3.923999999998426     -3.923999999999630      1.962000000000430
Pt      3.923999999998426     -1.961999999999630      3.924000000000429
Pt      5.885999999998425      1.962000000000369     -1.961999999999570
Pt      3.923999999998426      1.962000000000369     -3.923999999999570
Pt      3.923999999998426      0.000000000000369     -1.961999999999570
Pt      5.885999999998425      1.962000000000369      1.962000000000430
Pt      5.885999999998425      0.000000000000369      0.000000000000430
Pt      3.923999999998426      1.962000000000369      0.000000000000430
Pt      3.923999999998426      0.000000000000369      1.962000000000430
Pt      3.923999999998426      1.962000000000369      3.924000000000429
Pt      3.923999999998426      3.924000000000369     -1.961999999999570
Pt      3.923999999998426      3.924000000000369      1.962000000000430
