29

Pt     -5.886000000001575      5.886000000000369      1.962000000000430
Pt     -1.962000000001574      5.886000000000369     -1.961999999999570
Pt     -1.962000000001574      5.886000000000369      1.962000000000430
Pt     -3.924000000001573      5.886000000000369      0.000000000000430
Pt     -1.962000000001574      5.886000000000369      5.886000000000429
Pt     -3.924000000001573      5.886000000000369      3.924000000000429
Pt     -1.962000000001574      7.848000000000368      0.000000000000430
Pt     -1.962000000001574      7.848000000000368      3.924000000000429
Pt      1.961999999998426      5.886000000000369      1.962000000000430
Pt     -0.000000000001574      5.886000000000369      0.000000000000430
Pt      1.961999999998426      5.886000000000369      5.886000000000429
Pt     -0.000000000001574      5.886000000000369      3.924000000000429
Pt      1.961999999998426      9.810000000000368     -1.961999999999570
Pt      1.961999999998426      7.848000000000368     -3.923999999999570
Pt     -0.000000000001574      7.848000000000368     -1.961999999999570
Pt      1.961999999998426      9.810000000000368      1.962000000000430
Pt      1.961999999998426      7.848000000000368      0.000000000000430
Pt     -0.000000000001574      9.810000000000368      0.000000000000430
Pt     -0.000000000001574      7.848000000000368      1.962000000000430
Pt      1.961999999998426      9.810000000000368      5.886000000000429
Pt      1.961999999998426      7.848000000000368      3.924000000000429
Pt     -0.000000000001574      7.848000000000368      5.886000000000429
Pt      3.923999999998426      5.886000000000369      3.924000000000429
Pt      3.923999999998426      9.810000000000368     -3.923999999999570
Pt      3.923999999998426      7.848000000000368     -1.961999999999570
Pt      3.923999999998426      9.810000000000368      0.000000000000430
Pt      3.923999999998426      7.848000000000368      1.962000000000430
Pt      3.923999999998426      9.810000000000368      3.924000000000429
Pt      3.923999999998426      7.848000000000368      5.886000000000429
