31

Pt     -0.000000000000000      0.000000000000000     -0.000000000000000
Pt     -0.000000000000000     -1.962000000000000     -1.962000000000000
Pt     -0.000000000000000     -1.962000000000000      1.962000000000000
Pt     -1.962000000000000     -1.962000000000000     -0.000000000000000
Pt     -1.962000000000000      0.000000000000000     -1.962000000000000
Pt     -0.000000000000000      1.962000000000000     -1.962000000000000
Pt     -0.000000000000000      1.962000000000000      1.962000000000000
Pt     -1.962000000000000      1.962000000000000     -0.000000000000000
Pt     -1.962000000000000      0.000000000000000      1.962000000000000
Pt      1.962000000000000     -1.962000000000000     -0.000000000000000
Pt      1.962000000000000      0.000000000000000     -1.962000000000000
Pt      1.962000000000000      1.962000000000000     -0.000000000000000
Pt      1.962000000000000      0.000000000000000      1.962000000000000
Pt     -0.000000000000000     -3.924000000000000     -0.000000000000000
Pt     -3.924000000000000      0.000000000000000     -0.000000000000000
Pt     -0.000000000000000      3.924000000000000     -0.000000000000000
Pt      3.924000000000000      0.000000000000000     -0.000000000000000
Pt     -1.962000000000000     -3.924000000000000     -1.962000000000000
Pt     -3.924000000000000     -1.962000000000000     -1.962000000000000
Pt     -3.924000000000000     -1.962000000000000      1.962000000000000
Pt     -1.962000000000000     -3.924000000000000      1.962000000000000
Pt     -3.924000000000000      1.962000000000000     -1.962000000000000
Pt     -3.924000000000000      1.962000000000000      1.962000000000000
Pt     -1.962000000000000      3.924000000000000     -1.962000000000000
Pt     -1.962000000000000      3.924000000000000      1.962000000000000
Pt      1.962000000000000     -3.924000000000000     -1.962000000000000
Pt      3.924000000000000     -1.962000000000000     -1.962000000000000
Pt      3.924000000000000     -1.962000000000000      1.962000000000000
Pt      1.962000000000000     -3.924000000000000      1.962000000000000
Pt      3.924000000000000      1.962000000000000     -1.962000000000000
Pt      3.924000000000000      1.962000000000000      1.962000000000000
