48

Pt     -4.905000000000292     -0.981000000000117     -6.867000000000119
Pt     -4.905000000000292     -0.981000000000117     -2.943000000000119
Pt     -4.905000000000292     -0.981000000000117      0.980999999999881
Pt     -4.905000000000292     -0.981000000000117      4.904999999999882
Pt     -4.905000000000292      0.980999999999883     -4.905000000000118
Pt     -4.905000000000292      0.980999999999883     -0.981000000000119
Pt     -4.905000000000292      0.980999999999883      2.942999999999882
Pt     -4.905000000000292      0.980999999999883      6.866999999999882
Pt     -2.943000000000293     -0.981000000000117     -4.905000000000118
Pt     -0.981000000000293     -0.981000000000117     -6.867000000000119
Pt     -2.943000000000293     -0.981000000000117     -0.981000000000119
Pt     -0.981000000000293     -0.981000000000117     -2.943000000000119
Pt     -2.943000000000293     -0.981000000000117      2.942999999999882
Pt     -0.981000000000293     -0.981000000000117      0.980999999999881
Pt     -2.943000000000293     -0.981000000000117      6.866999999999882
Pt     -0.981000000000293     -0.981000000000117      4.904999999999882
Pt     -0.981000000000293      0.980999999999883     -4.905000000000118
Pt     -2.943000000000293      0.980999999999883     -6.867000000000119
Pt     -0.981000000000293      0.980999999999883     -0.981000000000119
Pt     -2.943000000000293      0.980999999999883     -2.943000000000119
Pt     -0.981000000000293      0.980999999999883      2.942999999999882
Pt     -2.943000000000293      0.980999999999883      0.980999999999881
Pt     -0.981000000000293      0.980999999999883      6.866999999999882
Pt     -2.943000000000293      0.980999999999883      4.904999999999882
Pt      0.980999999999707     -0.981000000000117     -4.905000000000118
Pt      2.942999999999708     -0.981000000000117     -6.867000000000119
Pt      0.980999999999707     -0.981000000000117     -0.981000000000119
Pt      2.942999999999708     -0.981000000000117     -2.943000000000119
Pt      0.980999999999707     -0.981000000000117      2.942999999999882
Pt      2.942999999999708     -0.981000000000117      0.980999999999881
Pt      0.980999999999707     -0.981000000000117      6.866999999999882
Pt      2.942999999999708     -0.981000000000117      4.904999999999882
Pt      2.942999999999708      0.980999999999883     -4.905000000000118
Pt      0.980999999999707      0.980999999999883     -6.867000000000119
Pt      2.942999999999708      0.980999999999883     -0.981000000000119
Pt      0.980999999999707      0.980999999999883     -2.943000000000119
Pt      2.942999999999708      0.980999999999883      2.942999999999882
Pt      0.980999999999707      0.980999999999883      0.980999999999881
Pt      2.942999999999708      0.980999999999883      6.866999999999882
Pt      0.980999999999707      0.980999999999883      4.904999999999882
Pt      4.904999999999708     -0.981000000000117     -4.905000000000118
Pt      4.904999999999708     -0.981000000000117     -0.981000000000119
Pt      4.904999999999708     -0.981000000000117      2.942999999999882
Pt      4.904999999999708     -0.981000000000117      6.866999999999882
Pt      4.904999999999708      0.980999999999883     -6.867000000000119
Pt      4.904999999999708      0.980999999999883     -2.943000000000119
Pt      4.904999999999708      0.980999999999883      0.980999999999881
Pt      4.904999999999708      0.980999999999883      4.904999999999882
