28

Pt     -2.943000000000293     -0.981000000000117     -0.981000000000119
Pt     -0.981000000000293     -2.943000000000117     -0.981000000000119
Pt     -0.981000000000293     -0.981000000000117     -2.943000000000119
Pt     -2.943000000000293     -0.981000000000117      2.942999999999882
Pt     -0.981000000000293     -2.943000000000117      2.942999999999882
Pt     -0.981000000000293     -0.981000000000117      0.980999999999881
Pt     -2.943000000000293     -2.943000000000117      0.980999999999881
Pt     -2.943000000000293      2.942999999999884     -0.981000000000119
Pt     -0.981000000000293      0.980999999999883     -0.981000000000119
Pt     -0.981000000000293      2.942999999999884     -2.943000000000119
Pt     -2.943000000000293      0.980999999999883     -2.943000000000119
Pt     -0.981000000000293      0.980999999999883      2.942999999999882
Pt     -0.981000000000293      2.942999999999884      0.980999999999881
Pt     -2.943000000000293      0.980999999999883      0.980999999999881
Pt      0.980999999999707     -0.981000000000117     -0.981000000000119
Pt      2.942999999999708     -2.943000000000117     -0.981000000000119
Pt      2.942999999999708     -0.981000000000117     -2.943000000000119
Pt      0.980999999999707     -2.943000000000117     -2.943000000000119
Pt      0.980999999999707     -0.981000000000117      2.942999999999882
Pt      2.942999999999708     -0.981000000000117      0.980999999999881
Pt      0.980999999999707     -2.943000000000117      0.980999999999881
Pt      0.980999999999707      2.942999999999884     -0.981000000000119
Pt      2.942999999999708      0.980999999999883     -0.981000000000119
Pt      0.980999999999707      0.980999999999883     -2.943000000000119
Pt      0.980999999999707      2.942999999999884      2.942999999999882
Pt      2.942999999999708      0.980999999999883      2.942999999999882
Pt      2.942999999999708      2.942999999999884      0.980999999999881
Pt      0.980999999999707      0.980999999999883      0.980999999999881
