16

Pt     -5.886000000001575     -3.923999999999630      3.924000000000429
Pt     -5.886000000001575      0.000000000000369      3.924000000000429
Pt     -5.886000000001575      3.924000000000369      3.924000000000429
Pt     -3.924000000001573     -5.885999999999632      3.924000000000429
Pt     -1.962000000001574     -1.961999999999630      5.886000000000429
Pt     -1.962000000001574     -3.923999999999630      3.924000000000429
Pt     -3.924000000001573     -1.961999999999630      3.924000000000429
Pt     -1.962000000001574      1.962000000000369      5.886000000000429
Pt     -1.962000000001574      0.000000000000369      3.924000000000429
Pt     -3.924000000001573      1.962000000000369      3.924000000000429
Pt     -1.962000000001574      3.924000000000369      3.924000000000429
Pt     -3.924000000001573      5.886000000000369      3.924000000000429
Pt     -0.000000000001574     -1.961999999999630      3.924000000000429
Pt      1.961999999998426      0.000000000000369      3.924000000000429
Pt     -0.000000000001574      1.962000000000369      3.924000000000429
Pt     -0.000000000001574      0.000000000000369      5.886000000000429
