16

Pt      0.000000000000000      3.924000000000001      3.923999999999999
Pt     -1.962000000000000      1.962000000000002      3.923999999999999
Pt      0.000000000000000      7.848000000000001      3.923999999999999
Pt     -1.962000000000000      5.886000000000001      3.923999999999999
Pt     -1.962000000000000      9.810000000000000      3.923999999999999
Pt      3.923999999999999      3.924000000000001      3.923999999999999
Pt      1.962000000000000      1.962000000000002      3.923999999999999
Pt      3.923999999999999      7.848000000000001      3.923999999999999
Pt      1.962000000000000      5.886000000000001      3.923999999999999
Pt      1.962000000000000      9.810000000000000      3.923999999999999
Pt      5.885999999999999      5.886000000000001      3.923999999999999
Pt      0.000000000000000      3.924000000000001      3.923999999999999
Pt     -1.962000000000000      1.962000000000002      3.923999999999999
Pt      3.923999999999999      0.000000000000000      3.923999999999999
Pt      3.923999999999999      3.924000000000001      3.923999999999999
Pt      1.962000000000000      1.962000000000002      3.923999999999999
