19

Pt      1.961999999998426     -1.961999999999630     -1.961999999999570
Pt      1.961999999998426     -3.923999999999630     -3.923999999999570
Pt      1.961999999998426     -3.923999999999630      0.000000000000430
Pt      1.961999999998426      1.962000000000369     -1.961999999999570
Pt      1.961999999998426      0.000000000000369     -3.923999999999570
Pt      1.961999999998426      0.000000000000369      0.000000000000430
Pt      3.923999999998426     -1.961999999999630     -3.923999999999570
Pt      3.923999999998426     -3.923999999999630     -1.961999999999570
Pt      3.923999999998426     -1.961999999999630      0.000000000000430
Pt      3.923999999998426     -3.923999999999630      1.962000000000430
Pt      3.923999999998426     -1.961999999999630      3.924000000000429
Pt      3.923999999998426      1.962000000000369     -3.923999999999570
Pt      3.923999999998426      0.000000000000369     -1.961999999999570
Pt      3.923999999998426      1.962000000000369      0.000000000000430
Pt      3.923999999998426      0.000000000000369      1.962000000000430
Pt      3.923999999998426      1.962000000000369      3.924000000000429
Pt      3.923999999998426      3.924000000000369     -1.961999999999570
Pt      3.923999999998426      5.886000000000369      0.000000000000430
Pt      3.923999999998426      3.924000000000369      1.962000000000430
