17

Pt      0.000000000000000      1.962000000000000     -1.962000000000000
Pt     -1.962000000000000      3.923999999999999     -1.962000000000000
Pt      0.000000000000000      5.885999999999999     -1.962000000000000
Pt      1.962000000000000      0.000000000000000     -1.962000000000000
Pt      3.923999999999999      1.962000000000000     -1.962000000000000
Pt      1.962000000000000      3.923999999999999     -1.962000000000000
Pt      5.885999999999999      0.000000000000000     -1.962000000000000
Pt     -1.962000000000000     -3.923999999999999     -1.962000000000000
Pt      0.000000000000000     -1.962000000000000     -1.962000000000000
Pt     -1.962000000000000      0.000000000000000     -1.962000000000000
Pt      0.000000000000000      1.962000000000000     -1.962000000000000
Pt     -1.962000000000000      3.923999999999999     -1.962000000000000
Pt      1.962000000000000     -3.923999999999999     -1.962000000000000
Pt      3.923999999999999     -1.962000000000000     -1.962000000000000
Pt      1.962000000000000      0.000000000000000     -1.962000000000000
Pt      3.923999999999999      1.962000000000000     -1.962000000000000
Pt      1.962000000000000      3.923999999999999     -1.962000000000000
