20

Pt     -1.962000000001574     -1.961999999999630      5.886000000000429
Pt     -1.962000000001574      1.962000000000369      5.886000000000429
Pt     -3.924000000001573      0.000000000000369      5.886000000000429
Pt     -1.962000000001574      3.924000000000369      3.924000000000429
Pt      1.961999999998426     -1.961999999999630      5.886000000000429
Pt     -0.000000000001574     -3.923999999999630      5.886000000000429
Pt      1.961999999998426      1.962000000000369      5.886000000000429
Pt     -0.000000000001574      1.962000000000369      3.924000000000429
Pt     -0.000000000001574      0.000000000000369      5.886000000000429
Pt      1.961999999998426      5.886000000000369      5.886000000000429
Pt      1.961999999998426      3.924000000000369      3.924000000000429
Pt     -0.000000000001574      5.886000000000369      3.924000000000429
Pt     -0.000000000001574      3.924000000000369      5.886000000000429
Pt      1.961999999998426      7.848000000000368      3.924000000000429
Pt      5.885999999998425     -1.961999999999630      5.886000000000429
Pt      3.923999999998426     -3.923999999999630      5.886000000000429
Pt      5.885999999998425      1.962000000000369      5.886000000000429
Pt      3.923999999998426      0.000000000000369      5.886000000000429
Pt      5.885999999998425      5.886000000000369      5.886000000000429
Pt      3.923999999998426      3.924000000000369      5.886000000000429
