92

Pt      1.961999999998426     -1.961999999999630     -5.885999999999571
Pt      1.961999999998426     -1.961999999999630     -1.961999999999570
Pt      1.961999999998426     -3.923999999999630     -3.923999999999570
Pt     -0.000000000001574     -1.961999999999630     -3.923999999999570
Pt      1.961999999998426      1.962000000000369     -5.885999999999571
Pt      1.961999999998426      0.000000000000369     -7.847999999999571
Pt     -0.000000000001574      1.962000000000369     -7.847999999999571
Pt     -0.000000000001574      0.000000000000369     -5.885999999999571
Pt      1.961999999998426      1.962000000000369     -1.961999999999570
Pt      1.961999999998426      0.000000000000369     -3.923999999999570
Pt     -0.000000000001574      1.962000000000369     -3.923999999999570
Pt     -0.000000000001574      0.000000000000369     -1.961999999999570
Pt      1.961999999998426      5.886000000000369     -5.885999999999571
Pt      1.961999999998426      3.924000000000369     -7.847999999999571
Pt     -0.000000000001574      5.886000000000369     -7.847999999999571
Pt     -0.000000000001574      3.924000000000369     -5.885999999999571
Pt      1.961999999998426      5.886000000000369     -1.961999999999570
Pt      1.961999999998426      3.924000000000369     -3.923999999999570
Pt     -0.000000000001574      5.886000000000369     -3.923999999999570
Pt     -0.000000000001574      3.924000000000369     -1.961999999999570
Pt     -0.000000000001574      7.848000000000368     -5.885999999999571
Pt      1.961999999998426      7.848000000000368     -3.923999999999570
Pt      5.885999999998425     -5.885999999999632     -1.961999999999570
Pt      3.923999999998426     -5.885999999999632     -3.923999999999570
Pt      5.885999999998425     -1.961999999999630     -5.885999999999571
Pt      3.923999999998426     -3.923999999999630     -5.885999999999571
Pt      5.885999999998425     -1.961999999999630     -1.961999999999570
Pt      5.885999999998425     -3.923999999999630     -3.923999999999570
Pt      3.923999999998426     -1.961999999999630     -3.923999999999570
Pt      3.923999999998426     -3.923999999999630     -1.961999999999570
Pt      5.885999999998425      1.962000000000369     -5.885999999999571
Pt      3.923999999998426      0.000000000000369     -5.885999999999571
Pt      5.885999999998425      1.962000000000369     -1.961999999999570
Pt      5.885999999998425      0.000000000000369     -3.923999999999570
Pt      3.923999999998426      1.962000000000369     -3.923999999999570
Pt      3.923999999998426      0.000000000000369     -1.961999999999570
Pt      5.885999999998425      5.886000000000369     -5.885999999999571
Pt      3.923999999998426      3.924000000000369     -5.885999999999571
Pt      5.885999999998425      5.886000000000369     -1.961999999999570
Pt      5.885999999998425      3.924000000000369     -3.923999999999570
Pt      3.923999999998426      5.886000000000369     -3.923999999999570
Pt      3.923999999998426      3.924000000000369     -1.961999999999570
Pt      3.923999999998426      7.848000000000368     -5.885999999999571
Pt      5.885999999998425      9.810000000000368     -1.961999999999570
Pt      5.885999999998425      7.848000000000368     -3.923999999999570
Pt      3.923999999998426      9.810000000000368     -3.923999999999570
Pt      3.923999999998426      7.848000000000368     -1.961999999999570
Pt      9.809999999998425     -5.885999999999632     -1.961999999999570
Pt      7.847999999998425     -5.885999999999632     -3.923999999999570
Pt      9.809999999998425     -1.961999999999630     -1.961999999999570
Pt      9.809999999998425     -3.923999999999630     -3.923999999999570
Pt      7.847999999998425     -1.961999999999630     -3.923999999999570
Pt      7.847999999998425     -3.923999999999630     -1.961999999999570
Pt      7.847999999998425      0.000000000000369     -5.885999999999571
Pt      9.809999999998425      1.962000000000369     -1.961999999999570
Pt      9.809999999998425      0.000000000000369     -3.923999999999570
Pt      7.847999999998425      1.962000000000369     -3.923999999999570
Pt      7.847999999998425      0.000000000000369     -1.961999999999570
Pt      7.847999999998425      3.924000000000369     -5.885999999999571
Pt      9.809999999998425      5.886000000000369     -1.961999999999570
Pt      9.809999999998425      3.924000000000369     -3.923999999999570
Pt      7.847999999998425      5.886000000000369     -3.923999999999570
Pt      7.847999999998425      3.924000000000369     -1.961999999999570
Pt      9.809999999998425      9.810000000000368     -1.961999999999570
Pt      9.809999999998425      7.848000000000368     -3.923999999999570
Pt      7.847999999998425      9.810000000000368     -3.923999999999570
Pt      7.847999999998425      7.848000000000368     -1.961999999999570
Pt      7.847999999998425     11.772000000000368     -1.961999999999570
Pt     13.733999999998428     -5.885999999999632     -1.961999999999570
Pt     13.733999999998428     -1.961999999999630     -1.961999999999570
Pt     11.771999999998425     -1.961999999999630     -3.923999999999570
Pt     11.771999999998425     -3.923999999999630     -1.961999999999570
Pt     13.733999999998428      1.962000000000369     -1.961999999999570
Pt     13.733999999998428      0.000000000000369     -3.923999999999570
Pt     11.771999999998425      1.962000000000369     -3.923999999999570
Pt     11.771999999998425      0.000000000000369     -1.961999999999570
Pt     13.733999999998428      5.886000000000369     -1.961999999999570
Pt     13.733999999998428      3.924000000000369     -3.923999999999570
Pt     11.771999999998425      5.886000000000369     -3.923999999999570
Pt     11.771999999998425      3.924000000000369     -1.961999999999570
Pt     13.733999999998428      9.810000000000368     -1.961999999999570
Pt     11.771999999998425      7.848000000000368     -1.961999999999570
Pt     11.771999999998425     11.772000000000368     -1.961999999999570
Pt     17.657999999998427     -1.961999999999630     -1.961999999999570
Pt     15.695999999998431     -3.923999999999630     -1.961999999999570
Pt     17.657999999998427      1.962000000000369     -1.961999999999570
Pt     15.695999999998431      0.000000000000369     -1.961999999999570
Pt     17.657999999998427      5.886000000000369     -1.961999999999570
Pt     15.695999999998431      3.924000000000369     -1.961999999999570
Pt     15.695999999998431      7.848000000000368     -1.961999999999570
Pt     19.619999999998431      0.000000000000369     -1.961999999999570
Pt     19.619999999998431      3.924000000000369     -1.961999999999570
