49

Pt      1.961999999998426      1.962000000000369     -9.809999999999571
Pt      1.961999999998426      1.962000000000369     -5.885999999999571
Pt      1.961999999998426      0.000000000000369     -7.847999999999571
Pt     -0.000000000001574      1.962000000000369     -7.847999999999571
Pt     -0.000000000001574      0.000000000000369     -5.885999999999571
Pt      1.961999999998426      1.962000000000369     -1.961999999999570
Pt      1.961999999998426      0.000000000000369     -3.923999999999570
Pt     -0.000000000001574      1.962000000000369     -3.923999999999570
Pt     -0.000000000001574      0.000000000000369     -1.961999999999570
Pt      1.961999999998426      3.924000000000369    -11.771999999999570
Pt     -0.000000000001574      3.924000000000369     -9.809999999999571
Pt      1.961999999998426      3.924000000000369     -7.847999999999571
Pt     -0.000000000001574      3.924000000000369     -5.885999999999571
Pt      1.961999999998426      3.924000000000369     -3.923999999999570
Pt     -0.000000000001574      3.924000000000369     -1.961999999999570
Pt      5.885999999998425      1.962000000000369     -9.809999999999571
Pt      3.923999999998426      1.962000000000369    -11.771999999999570
Pt      3.923999999998426      0.000000000000369     -9.809999999999571
Pt      5.885999999998425      1.962000000000369     -5.885999999999571
Pt      5.885999999998425      0.000000000000369     -7.847999999999571
Pt      3.923999999998426      1.962000000000369     -7.847999999999571
Pt      3.923999999998426      0.000000000000369     -5.885999999999571
Pt      5.885999999998425      1.962000000000369     -1.961999999999570
Pt      5.885999999998425      0.000000000000369     -3.923999999999570
Pt      3.923999999998426      1.962000000000369     -3.923999999999570
Pt      3.923999999998426      0.000000000000369     -1.961999999999570
Pt      3.923999999998426      3.924000000000369    -13.733999999999572
Pt      5.885999999998425      3.924000000000369    -11.771999999999570
Pt      3.923999999998426      3.924000000000369     -9.809999999999571
Pt      5.885999999998425      3.924000000000369     -7.847999999999571
Pt      3.923999999998426      3.924000000000369     -5.885999999999571
Pt      5.885999999998425      3.924000000000369     -3.923999999999570
Pt      3.923999999998426      3.924000000000369     -1.961999999999570
Pt      9.809999999998425      1.962000000000369     -5.885999999999571
Pt      7.847999999998425      1.962000000000369     -7.847999999999571
Pt      7.847999999998425      0.000000000000369     -5.885999999999571
Pt      9.809999999998425      1.962000000000369     -1.961999999999570
Pt      9.809999999998425      0.000000000000369     -3.923999999999570
Pt      7.847999999998425      1.962000000000369     -3.923999999999570
Pt      7.847999999998425      0.000000000000369     -1.961999999999570
Pt      7.847999999998425      3.924000000000369     -9.809999999999571
Pt      9.809999999998425      3.924000000000369     -7.847999999999571
Pt      7.847999999998425      3.924000000000369     -5.885999999999571
Pt      9.809999999998425      3.924000000000369     -3.923999999999570
Pt      7.847999999998425      3.924000000000369     -1.961999999999570
Pt     11.771999999998425      1.962000000000369     -3.923999999999570
Pt     11.771999999998425      3.924000000000369     -5.885999999999571
Pt     13.733999999998428      3.924000000000369     -3.923999999999570
Pt     11.771999999998425      3.924000000000369     -1.961999999999570
