28

Pt      5.885999999998425      9.810000000000368      1.962000000000430
Pt      5.885999999998425     13.734000000000371      1.962000000000430
Pt      5.885999999998425     11.772000000000368      0.000000000000430
Pt      3.923999999998426     13.734000000000371      0.000000000000430
Pt      5.885999999998425     17.658000000000371      1.962000000000430
Pt      5.885999999998425     15.696000000000375      0.000000000000430
Pt      3.923999999998426     17.658000000000371      0.000000000000430
Pt      9.809999999998425      9.810000000000368      1.962000000000430
Pt      9.809999999998425      7.848000000000368      0.000000000000430
Pt      7.847999999998425      9.810000000000368      0.000000000000430
Pt      7.847999999998425      7.848000000000368      1.962000000000430
Pt      9.809999999998425     13.734000000000371      1.962000000000430
Pt      9.809999999998425     11.772000000000368      0.000000000000430
Pt      7.847999999998425     13.734000000000371      0.000000000000430
Pt      7.847999999998425     11.772000000000368      1.962000000000430
Pt      9.809999999998425     17.658000000000371      1.962000000000430
Pt      9.809999999998425     15.696000000000375      0.000000000000430
Pt      7.847999999998425     17.658000000000371      0.000000000000430
Pt      7.847999999998425     15.696000000000375      1.962000000000430
Pt     11.771999999998425      9.810000000000368      0.000000000000430
Pt     13.733999999998428     11.772000000000368      0.000000000000430
Pt     11.771999999998425     13.734000000000371      0.000000000000430
Pt     11.771999999998425     11.772000000000368      1.962000000000430
Pt     13.733999999998428     15.696000000000375      0.000000000000430
Pt     11.771999999998425     17.658000000000371      0.000000000000430
Pt     11.771999999998425     15.696000000000375      1.962000000000430
Pt     15.695999999998431     13.734000000000371      0.000000000000430
Pt     15.695999999998431     17.658000000000371      0.000000000000430
