151

Pt    -21.582000000001575    -21.581999999999631     -1.961999999999570
Pt    -19.620000000001575    -19.619999999999632     -1.961999999999570
Pt    -21.582000000001575    -17.657999999999632     -1.961999999999570
Pt    -19.620000000001575    -19.619999999999632     -1.961999999999570
Pt    -17.658000000001575    -21.581999999999631     -1.961999999999570
Pt    -19.620000000001575    -19.619999999999632     -1.961999999999570
Pt    -17.658000000001575    -17.657999999999632     -1.961999999999570
Pt    -19.620000000001575    -19.619999999999632     -1.961999999999570
Pt    -21.582000000001575    -21.581999999999631     -1.961999999999570
Pt    -19.620000000001575    -19.619999999999632     -1.961999999999570
Pt    -21.582000000001575    -13.733999999999632     -1.961999999999570
Pt    -17.658000000001575    -13.733999999999632     -1.961999999999570
Pt    -19.620000000001575    -15.695999999999632     -1.961999999999570
Pt    -21.582000000001575     -9.809999999999631     -1.961999999999570
Pt    -17.658000000001575     -9.809999999999631     -1.961999999999570
Pt    -19.620000000001575    -11.771999999999631     -1.961999999999570
Pt    -21.582000000001575     -5.885999999999632     -1.961999999999570
Pt    -17.658000000001575     -5.885999999999632     -1.961999999999570
Pt    -19.620000000001575     -7.847999999999631     -1.961999999999570
Pt    -21.582000000001575     -1.961999999999630     -1.961999999999570
Pt    -17.658000000001575     -1.961999999999630     -1.961999999999570
Pt    -19.620000000001575     -3.923999999999630     -1.961999999999570
Pt    -21.582000000001575      1.962000000000369     -1.961999999999570
Pt    -17.658000000001575      1.962000000000369     -1.961999999999570
Pt    -19.620000000001575      0.000000000000369     -1.961999999999570
Pt    -19.620000000001575      3.924000000000369     -1.961999999999570
Pt    -13.734000000001576    -21.581999999999631     -1.961999999999570
Pt    -13.734000000001576    -17.657999999999632     -1.961999999999570
Pt    -15.696000000001575    -19.619999999999632     -1.961999999999570
Pt    -13.734000000001576    -13.733999999999632     -1.961999999999570
Pt    -15.696000000001575    -15.695999999999632     -1.961999999999570
Pt    -13.734000000001576     -9.809999999999631     -1.961999999999570
Pt    -15.696000000001575    -11.771999999999631     -1.961999999999570
Pt    -13.734000000001576     -5.885999999999632     -1.961999999999570
Pt    -15.696000000001575     -7.847999999999631     -1.961999999999570
Pt    -13.734000000001576     -1.961999999999630     -1.961999999999570
Pt    -15.696000000001575     -3.923999999999630     -1.961999999999570
Pt    -13.734000000001576      1.962000000000369     -1.961999999999570
Pt    -15.696000000001575      0.000000000000369     -1.961999999999570
Pt    -15.696000000001575      3.924000000000369     -1.961999999999570
Pt     -9.810000000001574    -21.581999999999631     -1.961999999999570
Pt     -9.810000000001574    -17.657999999999632     -1.961999999999570
Pt    -11.772000000001574    -19.619999999999632     -1.961999999999570
Pt     -9.810000000001574    -13.733999999999632     -1.961999999999570
Pt    -11.772000000001574    -15.695999999999632     -1.961999999999570
Pt     -9.810000000001574     -9.809999999999631     -1.961999999999570
Pt    -11.772000000001574    -11.771999999999631     -1.961999999999570
Pt     -9.810000000001574     -5.885999999999632     -1.961999999999570
Pt    -11.772000000001574     -7.847999999999631     -1.961999999999570
Pt     -9.810000000001574     -7.847999999999631      0.000000000000430
Pt     -9.810000000001574     -1.961999999999630     -1.961999999999570
Pt    -11.772000000001574     -3.923999999999630     -1.961999999999570
Pt     -9.810000000001574     -3.923999999999630      0.000000000000430
Pt     -9.810000000001574      1.962000000000369     -1.961999999999570
Pt    -11.772000000001574      0.000000000000369     -1.961999999999570
Pt     -9.810000000001574      0.000000000000369      0.000000000000430
Pt    -11.772000000001574      3.924000000000369     -1.961999999999570
Pt     -5.886000000001575    -21.581999999999631     -1.961999999999570
Pt     -5.886000000001575    -17.657999999999632     -1.961999999999570
Pt     -7.848000000001575    -19.619999999999632     -1.961999999999570
Pt     -5.886000000001575    -13.733999999999632     -1.961999999999570
Pt     -7.848000000001575    -15.695999999999632     -1.961999999999570
Pt     -5.886000000001575     -9.809999999999631     -1.961999999999570
Pt     -7.848000000001575    -11.771999999999631     -1.961999999999570
Pt     -5.886000000001575    -11.771999999999631      0.000000000000430
Pt     -7.848000000001575     -9.809999999999631      0.000000000000430
Pt     -5.886000000001575     -5.885999999999632     -1.961999999999570
Pt     -7.848000000001575     -7.847999999999631     -1.961999999999570
Pt     -5.886000000001575     -7.847999999999631      0.000000000000430
Pt     -7.848000000001575     -5.885999999999632      0.000000000000430
Pt     -5.886000000001575     -1.961999999999630     -1.961999999999570
Pt     -7.848000000001575     -3.923999999999630     -1.961999999999570
Pt     -5.886000000001575     -3.923999999999630      0.000000000000430
Pt     -7.848000000001575     -1.961999999999630      0.000000000000430
Pt     -5.886000000001575      1.962000000000369     -1.961999999999570
Pt     -7.848000000001575      0.000000000000369     -1.961999999999570
Pt     -5.886000000001575      0.000000000000369      0.000000000000430
Pt     -7.848000000001575      3.924000000000369     -1.961999999999570
Pt     -1.962000000001574    -21.581999999999631     -1.961999999999570
Pt     -1.962000000001574    -17.657999999999632     -1.961999999999570
Pt     -3.924000000001573    -19.619999999999632     -1.961999999999570
Pt     -1.962000000001574    -13.733999999999632     -1.961999999999570
Pt     -3.924000000001573    -15.695999999999632     -1.961999999999570
Pt     -1.962000000001574    -15.695999999999632      0.000000000000430
Pt     -3.924000000001573    -13.733999999999632      0.000000000000430
Pt     -1.962000000001574     -9.809999999999631     -1.961999999999570
Pt     -3.924000000001573    -11.771999999999631     -1.961999999999570
Pt     -1.962000000001574    -11.771999999999631      0.000000000000430
Pt     -3.924000000001573     -9.809999999999631      0.000000000000430
Pt     -1.962000000001574     -5.885999999999632     -1.961999999999570
Pt     -3.924000000001573     -7.847999999999631     -1.961999999999570
Pt     -1.962000000001574     -7.847999999999631      0.000000000000430
Pt     -3.924000000001573     -5.885999999999632      0.000000000000430
Pt     -1.962000000001574     -1.961999999999630     -1.961999999999570
Pt     -3.924000000001573     -3.923999999999630     -1.961999999999570
Pt     -1.962000000001574     -3.923999999999630      0.000000000000430
Pt     -3.924000000001573     -1.961999999999630      0.000000000000430
Pt     -1.962000000001574      1.962000000000369     -1.961999999999570
Pt     -3.924000000001573      0.000000000000369     -1.961999999999570
Pt     -1.962000000001574      0.000000000000369      0.000000000000430
Pt     -3.924000000001573      3.924000000000369     -1.961999999999570
Pt      1.961999999998426    -21.581999999999631     -1.961999999999570
Pt      1.961999999998426    -17.657999999999632     -1.961999999999570
Pt     -0.000000000001574    -19.619999999999632     -1.961999999999570
Pt      1.961999999998426    -13.733999999999632     -1.961999999999570
Pt     -0.000000000001574    -15.695999999999632     -1.961999999999570
Pt      1.961999999998426    -15.695999999999632      0.000000000000430
Pt     -0.000000000001574    -13.733999999999632      0.000000000000430
Pt      1.961999999998426     -9.809999999999631     -1.961999999999570
Pt     -0.000000000001574    -11.771999999999631     -1.961999999999570
Pt      1.961999999998426    -11.771999999999631      0.000000000000430
Pt     -0.000000000001574     -9.809999999999631      0.000000000000430
Pt      1.961999999998426     -5.885999999999632     -1.961999999999570
Pt     -0.000000000001574     -7.847999999999631     -1.961999999999570
Pt      1.961999999998426     -7.847999999999631      0.000000000000430
Pt     -0.000000000001574     -5.885999999999632      0.000000000000430
Pt      1.961999999998426     -1.961999999999630     -1.961999999999570
Pt     -0.000000000001574     -3.923999999999630     -1.961999999999570
Pt      1.961999999998426     -3.923999999999630      0.000000000000430
Pt     -0.000000000001574     -1.961999999999630      0.000000000000430
Pt      1.961999999998426      1.962000000000369     -1.961999999999570
Pt     -0.000000000001574      0.000000000000369     -1.961999999999570
Pt      1.961999999998426      0.000000000000369      0.000000000000430
Pt      5.885999999998425    -21.581999999999631     -1.961999999999570
Pt      5.885999999998425    -17.657999999999632     -1.961999999999570
Pt      3.923999999998426    -19.619999999999632     -1.961999999999570
Pt      3.923999999998426    -17.657999999999632      0.000000000000430
Pt      5.885999999998425    -13.733999999999632     -1.961999999999570
Pt      3.923999999998426    -15.695999999999632     -1.961999999999570
Pt      5.885999999998425    -15.695999999999632      0.000000000000430
Pt      3.923999999998426    -13.733999999999632      0.000000000000430
Pt      5.885999999998425     -9.809999999999631     -1.961999999999570
Pt      3.923999999998426    -11.771999999999631     -1.961999999999570
Pt      5.885999999998425    -11.771999999999631      0.000000000000430
Pt      3.923999999998426     -9.809999999999631      0.000000000000430
Pt      5.885999999998425     -5.885999999999632     -1.961999999999570
Pt      3.923999999998426     -7.847999999999631     -1.961999999999570
Pt      5.885999999998425     -7.847999999999631      0.000000000000430
Pt      3.923999999998426     -5.885999999999632      0.000000000000430
Pt      5.885999999998425     -1.961999999999630     -1.961999999999570
Pt      3.923999999998426     -3.923999999999630     -1.961999999999570
Pt      5.885999999998425     -3.923999999999630      0.000000000000430
Pt      3.923999999998426     -1.961999999999630      0.000000000000430
Pt      5.885999999998425      1.962000000000369     -1.961999999999570
Pt      3.923999999998426      0.000000000000369     -1.961999999999570
Pt      7.847999999998425    -19.619999999999632     -1.961999999999570
Pt      7.847999999998425    -15.695999999999632     -1.961999999999570
Pt      7.847999999998425    -11.771999999999631     -1.961999999999570
Pt      7.847999999998425     -7.847999999999631     -1.961999999999570
Pt      7.847999999998425     -3.923999999999630     -1.961999999999570
Pt      7.847999999998425      0.000000000000369     -1.961999999999570
