26

Pt     -3.924000000000168     -3.924000000000106     -0.000000000000107
Pt     -5.886000000000168     -5.886000000000106     -0.000000000000107
Pt     -3.924000000000168     -0.000000000000107      3.923999999999895
Pt     -3.924000000000168     -1.962000000000106      1.961999999999895
Pt     -5.886000000000168     -1.962000000000106      3.923999999999895
Pt     -0.000000000000169     -3.924000000000106     -0.000000000000107
Pt     -1.962000000000168     -3.924000000000106     -1.962000000000106
Pt     -1.962000000000168     -5.886000000000106     -0.000000000000107
Pt     -0.000000000000169     -0.000000000000107     -3.924000000000106
Pt     -1.962000000000168     -1.962000000000106     -3.924000000000106
Pt     -0.000000000000169     -0.000000000000107     -0.000000000000107
Pt     -0.000000000000169     -1.962000000000106     -1.962000000000106
Pt     -1.962000000000168     -0.000000000000107     -1.962000000000106
Pt     -1.962000000000168     -1.962000000000106     -0.000000000000107
Pt     -0.000000000000169     -0.000000000000107      3.923999999999895
Pt     -0.000000000000169     -1.962000000000106      1.961999999999895
Pt     -1.962000000000168     -0.000000000000107      1.961999999999895
Pt     -1.962000000000168     -1.962000000000106      3.923999999999895
Pt     -0.000000000000169      1.961999999999895     -1.962000000000106
Pt     -1.962000000000168      1.961999999999895     -0.000000000000107
Pt     -0.000000000000169      1.961999999999895      1.961999999999895
Pt     -1.962000000000168      1.961999999999895      3.923999999999895
Pt      1.961999999999833     -0.000000000000107     -1.962000000000106
Pt      1.961999999999833     -1.962000000000106     -0.000000000000107
Pt      1.961999999999833     -0.000000000000107      1.961999999999895
Pt      1.961999999999833      1.961999999999895     -0.000000000000107
