47

Pt     -3.924000000000168     -1.962000000000106      1.961999999999895
Pt     -3.924000000000168     -1.962000000000106      5.885999999999894
Pt     -0.000000000000169     -3.924000000000106     -3.924000000000106
Pt     -0.000000000000169     -3.924000000000106     -0.000000000000107
Pt     -0.000000000000169     -5.886000000000106     -1.962000000000106
Pt     -1.962000000000168     -3.924000000000106     -1.962000000000106
Pt     -0.000000000000169     -3.924000000000106      3.923999999999895
Pt     -0.000000000000169     -5.886000000000106      1.961999999999895
Pt     -1.962000000000168     -3.924000000000106      1.961999999999895
Pt     -1.962000000000168     -3.924000000000106      5.885999999999894
Pt     -0.000000000000169     -1.962000000000106     -5.886000000000106
Pt     -1.962000000000168     -1.962000000000106     -3.924000000000106
Pt     -0.000000000000169     -1.962000000000106     -1.962000000000106
Pt     -1.962000000000168     -1.962000000000106     -0.000000000000107
Pt     -0.000000000000169     -1.962000000000106      1.961999999999895
Pt     -1.962000000000168     -1.962000000000106      3.923999999999895
Pt     -0.000000000000169     -1.962000000000106      5.885999999999894
Pt     -1.962000000000168     -1.962000000000106      7.847999999999894
Pt      3.923999999999833     -3.924000000000106     -3.924000000000106
Pt      3.923999999999833     -3.924000000000106     -0.000000000000107
Pt      3.923999999999833     -5.886000000000106     -1.962000000000106
Pt      1.961999999999833     -3.924000000000106     -1.962000000000106
Pt      1.961999999999833     -5.886000000000106     -0.000000000000107
Pt      3.923999999999833     -3.924000000000106      3.923999999999895
Pt      3.923999999999833     -5.886000000000106      1.961999999999895
Pt      1.961999999999833     -3.924000000000106      1.961999999999895
Pt      1.961999999999833     -5.886000000000106      3.923999999999895
Pt      1.961999999999833     -3.924000000000106      5.885999999999894
Pt      3.923999999999833     -1.962000000000106     -5.886000000000106
Pt      1.961999999999833     -1.962000000000106     -3.924000000000106
Pt      3.923999999999833     -1.962000000000106     -1.962000000000106
Pt      1.961999999999833     -1.962000000000106     -0.000000000000107
Pt      3.923999999999833     -1.962000000000106      1.961999999999895
Pt      1.961999999999833     -1.962000000000106      3.923999999999895
Pt      3.923999999999833     -1.962000000000106      5.885999999999894
Pt      1.961999999999833     -1.962000000000106      7.847999999999894
Pt      5.885999999999832     -3.924000000000106     -1.962000000000106
Pt      5.885999999999832     -5.886000000000106     -0.000000000000107
Pt      7.847999999999832     -3.924000000000106      3.923999999999895
Pt      5.885999999999832     -3.924000000000106      1.961999999999895
Pt      5.885999999999832     -3.924000000000106      5.885999999999894
Pt      5.885999999999832     -1.962000000000106     -3.924000000000106
Pt      5.885999999999832     -1.962000000000106     -0.000000000000107
Pt      7.847999999999832     -1.962000000000106      1.961999999999895
Pt      5.885999999999832     -1.962000000000106      3.923999999999895
Pt      7.847999999999832     -1.962000000000106      5.885999999999894
Pt      5.885999999999832     -1.962000000000106      7.847999999999894
