87

Pt     -5.886000000001575      5.886000000000369     -1.961999999999570
Pt     -5.886000000001575      3.924000000000369      0.000000000000430
Pt     -5.886000000001575      9.810000000000368     -1.961999999999570
Pt     -5.886000000001575      7.848000000000368      0.000000000000430
Pt     -1.962000000001574      1.962000000000369      1.962000000000430
Pt     -1.962000000001574      5.886000000000369     -1.961999999999570
Pt     -3.924000000001573      5.886000000000369     -3.923999999999570
Pt     -3.924000000001573      3.924000000000369     -1.961999999999570
Pt     -1.962000000001574      5.886000000000369      1.962000000000430
Pt     -1.962000000001574      3.924000000000369      0.000000000000430
Pt     -3.924000000001573      5.886000000000369      0.000000000000430
Pt     -3.924000000001573      3.924000000000369      1.962000000000430
Pt     -1.962000000001574      5.886000000000369      5.886000000000429
Pt     -1.962000000001574      3.924000000000369      3.924000000000429
Pt     -3.924000000001573      5.886000000000369      3.924000000000429
Pt     -1.962000000001574      9.810000000000368     -1.961999999999570
Pt     -1.962000000001574      7.848000000000368     -3.923999999999570
Pt     -3.924000000001573      9.810000000000368     -3.923999999999570
Pt     -3.924000000001573      7.848000000000368     -1.961999999999570
Pt     -1.962000000001574      9.810000000000368      1.962000000000430
Pt     -1.962000000001574      7.848000000000368      0.000000000000430
Pt     -3.924000000001573      9.810000000000368      0.000000000000430
Pt     -3.924000000001573      7.848000000000368      1.962000000000430
Pt     -1.962000000001574      9.810000000000368      5.886000000000429
Pt     -1.962000000001574      7.848000000000368      3.924000000000429
Pt     -3.924000000001573      9.810000000000368      3.924000000000429
Pt     -1.962000000001574     13.734000000000371     -1.961999999999570
Pt     -1.962000000001574     11.772000000000368     -3.923999999999570
Pt     -3.924000000001573     11.772000000000368     -1.961999999999570
Pt     -1.962000000001574     13.734000000000371      1.962000000000430
Pt     -1.962000000001574     11.772000000000368      0.000000000000430
Pt     -3.924000000001573     11.772000000000368      1.962000000000430
Pt     -1.962000000001574     13.734000000000371      5.886000000000429
Pt     -1.962000000001574     11.772000000000368      3.924000000000429
Pt     -0.000000000001574      1.962000000000369      3.924000000000429
Pt     -0.000000000001574      1.962000000000369      7.848000000000429
Pt      1.961999999998426      5.886000000000369     -1.961999999999570
Pt     -0.000000000001574      5.886000000000369     -3.923999999999570
Pt     -0.000000000001574      3.924000000000369     -1.961999999999570
Pt      1.961999999998426      5.886000000000369      1.962000000000430
Pt      1.961999999998426      3.924000000000369      0.000000000000430
Pt     -0.000000000001574      5.886000000000369      0.000000000000430
Pt     -0.000000000001574      3.924000000000369      1.962000000000430
Pt      1.961999999998426      5.886000000000369      5.886000000000429
Pt      1.961999999998426      3.924000000000369      3.924000000000429
Pt     -0.000000000001574      5.886000000000369      3.924000000000429
Pt     -0.000000000001574      3.924000000000369      5.886000000000429
Pt      1.961999999998426      3.924000000000369      7.848000000000429
Pt     -0.000000000001574      5.886000000000369      7.848000000000429
Pt      1.961999999998426      9.810000000000368     -1.961999999999570
Pt      1.961999999998426      7.848000000000368     -3.923999999999570
Pt     -0.000000000001574      9.810000000000368     -3.923999999999570
Pt     -0.000000000001574      7.848000000000368     -1.961999999999570
Pt      1.961999999998426      9.810000000000368      1.962000000000430
Pt      1.961999999998426      7.848000000000368      0.000000000000430
Pt     -0.000000000001574      9.810000000000368      0.000000000000430
Pt     -0.000000000001574      7.848000000000368      1.962000000000430
Pt      1.961999999998426      9.810000000000368      5.886000000000429
Pt      1.961999999998426      7.848000000000368      3.924000000000429
Pt     -0.000000000001574      9.810000000000368      3.924000000000429
Pt     -0.000000000001574      7.848000000000368      5.886000000000429
Pt      1.961999999998426      7.848000000000368      7.848000000000429
Pt     -0.000000000001574      9.810000000000368      7.848000000000429
Pt     -0.000000000001574     13.734000000000371     -3.923999999999570
Pt     -0.000000000001574     11.772000000000368     -1.961999999999570
Pt      1.961999999998426     13.734000000000371      1.962000000000430
Pt      1.961999999998426     11.772000000000368      0.000000000000430
Pt     -0.000000000001574     13.734000000000371      0.000000000000430
Pt     -0.000000000001574     11.772000000000368      1.962000000000430
Pt      1.961999999998426     13.734000000000371      5.886000000000429
Pt      1.961999999998426     11.772000000000368      3.924000000000429
Pt     -0.000000000001574     13.734000000000371      3.924000000000429
Pt     -0.000000000001574     11.772000000000368      5.886000000000429
Pt      1.961999999998426     11.772000000000368      7.848000000000429
Pt     -0.000000000001574     13.734000000000371      7.848000000000429
Pt     -0.000000000001574     15.696000000000375     -1.961999999999570
Pt     -0.000000000001574     15.696000000000375      1.962000000000430
Pt      1.961999999998426     15.696000000000375      3.924000000000429
Pt     -0.000000000001574     15.696000000000375      5.886000000000429
Pt      1.961999999998426     15.696000000000375      7.848000000000429
Pt      3.923999999998426      5.886000000000369      0.000000000000430
Pt      3.923999999998426      5.886000000000369      3.924000000000429
Pt      3.923999999998426      7.848000000000368     -1.961999999999570
Pt      3.923999999998426      9.810000000000368      0.000000000000430
Pt      3.923999999998426      7.848000000000368      1.962000000000430
Pt      3.923999999998426      9.810000000000368      3.924000000000429
Pt      3.923999999998426     11.772000000000368      1.962000000000430
