26

Pt     -3.924000000000168     -3.924000000000106     -0.000000000000107
Pt     -0.000000000000169     -3.924000000000106     -0.000000000000107
Pt     -1.962000000000168     -3.924000000000106     -1.962000000000106
Pt     -1.962000000000168     -3.924000000000106      1.961999999999895
Pt     -0.000000000000169     -0.000000000000107     -0.000000000000107
Pt     -0.000000000000169     -1.962000000000106     -1.962000000000106
Pt     -1.962000000000168     -1.962000000000106     -0.000000000000107
Pt     -0.000000000000169     -0.000000000000107      3.923999999999895
Pt     -0.000000000000169     -1.962000000000106      1.961999999999895
Pt     -1.962000000000168     -1.962000000000106      3.923999999999895
Pt     -0.000000000000169     -0.000000000000107      7.847999999999894
Pt     -0.000000000000169     -1.962000000000106      5.885999999999894
Pt      1.961999999999833     -3.924000000000106     -1.962000000000106
Pt      1.961999999999833     -3.924000000000106      1.961999999999895
Pt      3.923999999999833     -0.000000000000107     -3.924000000000106
Pt      1.961999999999833     -1.962000000000106     -3.924000000000106
Pt      3.923999999999833     -0.000000000000107     -0.000000000000107
Pt      3.923999999999833     -1.962000000000106     -1.962000000000106
Pt      1.961999999999833     -0.000000000000107     -1.962000000000106
Pt      1.961999999999833     -1.962000000000106     -0.000000000000107
Pt      3.923999999999833     -0.000000000000107      3.923999999999895
Pt      3.923999999999833     -1.962000000000106      1.961999999999895
Pt      1.961999999999833     -0.000000000000107      1.961999999999895
Pt      1.961999999999833     -1.962000000000106      3.923999999999895
Pt      1.961999999999833     -0.000000000000107      5.885999999999894
Pt      5.885999999999832     -0.000000000000107     -1.962000000000106
