33

Pt      7.848000000000001      3.923999999999999      0.000000000000000
Pt      7.848000000000001      7.848000000000003      0.000000000000000
Pt      5.886000000000001      5.885999999999999      0.000000000000000
Pt     11.772000000000002      0.000000000000000      0.000000000000000
Pt     11.772000000000002      3.923999999999999      0.000000000000000
Pt      9.810000000000002      1.962000000000000      0.000000000000000
Pt     11.772000000000002      7.848000000000003      0.000000000000000
Pt      9.810000000000002      5.885999999999999      0.000000000000000
Pt     15.696000000000002     -3.923999999999999      0.000000000000000
Pt     15.696000000000002      0.000000000000000      0.000000000000000
Pt     13.734000000000002     -1.962000000000000      0.000000000000000
Pt     15.696000000000002      3.923999999999999      0.000000000000000
Pt     13.734000000000002      1.962000000000000      0.000000000000000
Pt     15.696000000000002      7.848000000000003      0.000000000000000
Pt     13.734000000000002      5.885999999999999      0.000000000000000
Pt     15.696000000000002     11.772000000000002      0.000000000000000
Pt     13.734000000000002      9.810000000000006      0.000000000000000
Pt     19.620000000000001      0.000000000000000      0.000000000000000
Pt     17.658000000000001     -1.962000000000000      0.000000000000000
Pt     19.620000000000001      3.923999999999999      0.000000000000000
Pt     17.658000000000001      1.962000000000000      0.000000000000000
Pt     19.620000000000001      7.848000000000003      0.000000000000000
Pt     17.658000000000001      5.885999999999999      0.000000000000000
Pt     17.658000000000001      9.810000000000006      0.000000000000000
Pt     21.582000000000001      5.885999999999999      0.000000000000000
Pt      3.924000000000001      7.847999999999999      0.000000000000000
Pt      1.962000000000002      5.885999999999999      0.000000000000000
Pt      7.848000000000001      3.923999999999999      0.000000000000000
Pt      7.848000000000001      7.848000000000003      0.000000000000000
Pt      5.886000000000001      5.885999999999999      0.000000000000000
Pt     11.772000000000002      3.923999999999999      0.000000000000000
Pt      9.810000000000002      1.962000000000000      0.000000000000000
Pt      9.810000000000002      5.885999999999999      0.000000000000000
