60

Pt     -1.962000000001574    -13.733999999999632     -5.885999999999571
Pt     -1.962000000001574    -13.733999999999632     -1.961999999999570
Pt     -1.962000000001574     -9.809999999999631     -9.809999999999571
Pt     -1.962000000001574     -9.809999999999631     -5.885999999999571
Pt     -1.962000000001574    -11.771999999999631     -7.847999999999571
Pt     -1.962000000001574     -9.809999999999631     -1.961999999999570
Pt     -1.962000000001574    -11.771999999999631     -3.923999999999570
Pt     -1.962000000001574    -11.771999999999631      0.000000000000430
Pt     -1.962000000001574     -5.885999999999632    -13.733999999999572
Pt     -1.962000000001574     -5.885999999999632     -9.809999999999571
Pt     -1.962000000001574     -7.847999999999631    -11.771999999999570
Pt     -1.962000000001574     -5.885999999999632     -5.885999999999571
Pt     -1.962000000001574     -7.847999999999631     -7.847999999999571
Pt     -1.962000000001574     -5.885999999999632     -1.961999999999570
Pt     -1.962000000001574     -7.847999999999631     -3.923999999999570
Pt     -1.962000000001574     -7.847999999999631      0.000000000000430
Pt     -1.962000000001574     -1.961999999999630    -13.733999999999572
Pt     -1.962000000001574     -1.961999999999630     -9.809999999999571
Pt     -1.962000000001574     -3.923999999999630    -11.771999999999570
Pt     -1.962000000001574     -1.961999999999630     -5.885999999999571
Pt     -1.962000000001574     -3.923999999999630     -7.847999999999571
Pt     -1.962000000001574     -1.961999999999630     -1.961999999999570
Pt     -1.962000000001574     -3.923999999999630     -3.923999999999570
Pt     -1.962000000001574     -1.961999999999630      1.962000000000430
Pt     -1.962000000001574     -3.923999999999630      0.000000000000430
Pt     -1.962000000001574      1.962000000000369    -13.733999999999572
Pt     -1.962000000001574      1.962000000000369     -9.809999999999571
Pt     -1.962000000001574      0.000000000000369    -11.771999999999570
Pt     -1.962000000001574      1.962000000000369     -5.885999999999571
Pt     -1.962000000001574      0.000000000000369     -7.847999999999571
Pt     -1.962000000001574      1.962000000000369     -1.961999999999570
Pt     -1.962000000001574      0.000000000000369     -3.923999999999570
Pt     -1.962000000001574      1.962000000000369      1.962000000000430
Pt     -1.962000000001574      0.000000000000369      0.000000000000430
Pt     -1.962000000001574      5.886000000000369     -9.809999999999571
Pt     -1.962000000001574      3.924000000000369    -11.771999999999570
Pt     -1.962000000001574      5.886000000000369     -5.885999999999571
Pt     -1.962000000001574      3.924000000000369     -7.847999999999571
Pt     -1.962000000001574      5.886000000000369     -1.961999999999570
Pt     -1.962000000001574      3.924000000000369     -3.923999999999570
Pt     -1.962000000001574      5.886000000000369      1.962000000000430
Pt     -1.962000000001574      3.924000000000369      0.000000000000430
Pt     -0.000000000001574     -5.885999999999632     -3.923999999999570
Pt     -0.000000000001574     -7.847999999999631     -1.961999999999570
Pt     -0.000000000001574     -5.885999999999632      0.000000000000430
Pt     -0.000000000001574     -1.961999999999630     -7.847999999999571
Pt     -0.000000000001574     -3.923999999999630     -5.885999999999571
Pt     -0.000000000001574     -1.961999999999630     -3.923999999999570
Pt     -0.000000000001574     -3.923999999999630     -1.961999999999570
Pt     -0.000000000001574     -1.961999999999630      0.000000000000430
Pt     -0.000000000001574      1.962000000000369     -7.847999999999571
Pt     -0.000000000001574      0.000000000000369     -5.885999999999571
Pt     -0.000000000001574      1.962000000000369     -3.923999999999570
Pt     -0.000000000001574      0.000000000000369     -1.961999999999570
Pt     -0.000000000001574      1.962000000000369      0.000000000000430
Pt     -0.000000000001574      3.924000000000369     -5.885999999999571
Pt     -0.000000000001574      5.886000000000369     -3.923999999999570
Pt     -0.000000000001574      3.924000000000369     -1.961999999999570
Pt     -0.000000000001574      5.886000000000369      0.000000000000430
Pt     -0.000000000001574      3.924000000000369      1.962000000000430
