158

Pt     -9.810000000001574     -5.885999999999632      1.962000000000430
Pt     -9.810000000001574     -1.961999999999630      1.962000000000430
Pt    -11.772000000001574     -3.923999999999630      1.962000000000430
Pt     -5.886000000001575     -5.885999999999632      1.962000000000430
Pt     -5.886000000001575     -1.961999999999630      1.962000000000430
Pt     -7.848000000001575     -3.923999999999630      1.962000000000430
Pt     -5.886000000001575      1.962000000000369      1.962000000000430
Pt     -5.886000000001575      0.000000000000369      0.000000000000430
Pt     -7.848000000001575      0.000000000000369      1.962000000000430
Pt     -1.962000000001574     -5.885999999999632      1.962000000000430
Pt     -3.924000000001573     -7.847999999999631      1.962000000000430
Pt     -1.962000000001574     -1.961999999999630      1.962000000000430
Pt     -1.962000000001574     -3.923999999999630      0.000000000000430
Pt     -3.924000000001573     -1.961999999999630      0.000000000000430
Pt     -3.924000000001573     -3.923999999999630      1.962000000000430
Pt     -1.962000000001574      1.962000000000369      1.962000000000430
Pt     -1.962000000001574      0.000000000000369      0.000000000000430
Pt     -3.924000000001573      1.962000000000369      0.000000000000430
Pt     -3.924000000001573      0.000000000000369      1.962000000000430
Pt     -1.962000000001574      5.886000000000369      1.962000000000430
Pt     -1.962000000001574      3.924000000000369      0.000000000000430
Pt     -3.924000000001573      3.924000000000369      1.962000000000430
Pt      1.961999999998426     -5.885999999999632      1.962000000000430
Pt      1.961999999998426     -7.847999999999631      0.000000000000430
Pt     -0.000000000001574     -5.885999999999632      0.000000000000430
Pt     -0.000000000001574     -7.847999999999631      1.962000000000430
Pt      1.961999999998426     -1.961999999999630      1.962000000000430
Pt      1.961999999998426     -3.923999999999630      0.000000000000430
Pt     -0.000000000001574     -1.961999999999630      0.000000000000430
Pt     -0.000000000001574     -3.923999999999630      1.962000000000430
Pt      1.961999999998426      1.962000000000369     -1.961999999999570
Pt     -0.000000000001574      0.000000000000369     -1.961999999999570
Pt      1.961999999998426      1.962000000000369      1.962000000000430
Pt      1.961999999998426      0.000000000000369      0.000000000000430
Pt     -0.000000000001574      1.962000000000369      0.000000000000430
Pt     -0.000000000001574      0.000000000000369      1.962000000000430
Pt      1.961999999998426      5.886000000000369     -1.961999999999570
Pt      1.961999999998426      5.886000000000369      1.962000000000430
Pt      1.961999999998426      3.924000000000369      0.000000000000430
Pt     -0.000000000001574      5.886000000000369      0.000000000000430
Pt     -0.000000000001574      3.924000000000369      1.962000000000430
Pt      1.961999999998426      9.810000000000368      1.962000000000430
Pt      1.961999999998426      7.848000000000368      0.000000000000430
Pt     -0.000000000001574      7.848000000000368      1.962000000000430
Pt      5.885999999998425    -11.771999999999631      0.000000000000430
Pt      3.923999999998426     -9.809999999999631      0.000000000000430
Pt      5.885999999998425     -5.885999999999632      1.962000000000430
Pt      5.885999999998425     -7.847999999999631      0.000000000000430
Pt      3.923999999998426     -5.885999999999632      0.000000000000430
Pt      3.923999999998426     -7.847999999999631      1.962000000000430
Pt      5.885999999998425     -1.961999999999630     -1.961999999999570
Pt      5.885999999998425     -1.961999999999630      1.962000000000430
Pt      5.885999999998425     -3.923999999999630      0.000000000000430
Pt      3.923999999998426     -1.961999999999630      0.000000000000430
Pt      3.923999999998426     -3.923999999999630      1.962000000000430
Pt      5.885999999998425      1.962000000000369     -1.961999999999570
Pt      3.923999999998426      0.000000000000369     -1.961999999999570
Pt      5.885999999998425      1.962000000000369      1.962000000000430
Pt      5.885999999998425      0.000000000000369      0.000000000000430
Pt      3.923999999998426      1.962000000000369      0.000000000000430
Pt      3.923999999998426      0.000000000000369      1.962000000000430
Pt      5.885999999998425      5.886000000000369     -1.961999999999570
Pt      3.923999999998426      3.924000000000369     -1.961999999999570
Pt      5.885999999998425      5.886000000000369      1.962000000000430
Pt      5.885999999998425      3.924000000000369      0.000000000000430
Pt      3.923999999998426      5.886000000000369      0.000000000000430
Pt      3.923999999998426      3.924000000000369      1.962000000000430
Pt      5.885999999998425      9.810000000000368     -1.961999999999570
Pt      3.923999999998426      7.848000000000368     -1.961999999999570
Pt      5.885999999998425      9.810000000000368      1.962000000000430
Pt      5.885999999998425      7.848000000000368      0.000000000000430
Pt      3.923999999998426      9.810000000000368      0.000000000000430
Pt      3.923999999998426      7.848000000000368      1.962000000000430
Pt      5.885999999998425     11.772000000000368      0.000000000000430
Pt      3.923999999998426     11.772000000000368      1.962000000000430
Pt      7.847999999998425    -13.733999999999632      0.000000000000430
Pt      9.809999999998425    -11.771999999999631      0.000000000000430
Pt      7.847999999998425     -9.809999999999631      0.000000000000430
Pt      9.809999999998425     -5.885999999999632     -1.961999999999570
Pt      9.809999999998425     -5.885999999999632      1.962000000000430
Pt      9.809999999998425     -7.847999999999631      0.000000000000430
Pt      7.847999999998425     -5.885999999999632      0.000000000000430
Pt      7.847999999998425     -7.847999999999631      1.962000000000430
Pt      9.809999999998425     -1.961999999999630     -1.961999999999570
Pt      7.847999999998425     -3.923999999999630     -1.961999999999570
Pt      9.809999999998425     -1.961999999999630      1.962000000000430
Pt      9.809999999998425     -3.923999999999630      0.000000000000430
Pt      7.847999999998425     -1.961999999999630      0.000000000000430
Pt      7.847999999998425     -3.923999999999630      1.962000000000430
Pt      9.809999999998425      1.962000000000369     -1.961999999999570
Pt      7.847999999998425      0.000000000000369     -1.961999999999570
Pt      9.809999999998425      1.962000000000369      1.962000000000430
Pt      9.809999999998425      0.000000000000369      0.000000000000430
Pt      7.847999999998425      1.962000000000369      0.000000000000430
Pt      7.847999999998425      0.000000000000369      1.962000000000430
Pt      9.809999999998425      5.886000000000369     -1.961999999999570
Pt      7.847999999998425      3.924000000000369     -1.961999999999570
Pt      9.809999999998425      5.886000000000369      1.962000000000430
Pt      9.809999999998425      3.924000000000369      0.000000000000430
Pt      7.847999999998425      5.886000000000369      0.000000000000430
Pt      7.847999999998425      3.924000000000369      1.962000000000430
Pt      9.809999999998425      9.810000000000368     -1.961999999999570
Pt      7.847999999998425      7.848000000000368     -1.961999999999570
Pt      9.809999999998425      9.810000000000368      1.962000000000430
Pt      9.809999999998425      7.848000000000368      0.000000000000430
Pt      7.847999999998425      9.810000000000368      0.000000000000430
Pt      7.847999999998425      7.848000000000368      1.962000000000430
Pt      7.847999999998425     11.772000000000368     -1.961999999999570
Pt      9.809999999998425     11.772000000000368      0.000000000000430
Pt      7.847999999998425     13.734000000000371      0.000000000000430
Pt      7.847999999998425     11.772000000000368      1.962000000000430
Pt     13.733999999998428    -15.695999999999632      0.000000000000430
Pt     11.771999999998425    -13.733999999999632      0.000000000000430
Pt     13.733999999998428    -11.771999999999631      0.000000000000430
Pt     11.771999999998425     -9.809999999999631      0.000000000000430
Pt     11.771999999998425     -7.847999999999631     -1.961999999999570
Pt     13.733999999998428     -5.885999999999632      1.962000000000430
Pt     13.733999999998428     -7.847999999999631      0.000000000000430
Pt     11.771999999998425     -5.885999999999632      0.000000000000430
Pt     11.771999999998425     -7.847999999999631      1.962000000000430
Pt     11.771999999998425     -3.923999999999630     -1.961999999999570
Pt     13.733999999998428     -1.961999999999630      1.962000000000430
Pt     13.733999999998428     -3.923999999999630      0.000000000000430
Pt     11.771999999998425     -1.961999999999630      0.000000000000430
Pt     11.771999999998425     -3.923999999999630      1.962000000000430
Pt     11.771999999998425      0.000000000000369     -1.961999999999570
Pt     13.733999999998428      1.962000000000369      1.962000000000430
Pt     13.733999999998428      0.000000000000369      0.000000000000430
Pt     11.771999999998425      1.962000000000369      0.000000000000430
Pt     11.771999999998425      0.000000000000369      1.962000000000430
Pt     11.771999999998425      3.924000000000369     -1.961999999999570
Pt     13.733999999998428      5.886000000000369      1.962000000000430
Pt     13.733999999998428      3.924000000000369      0.000000000000430
Pt     11.771999999998425      5.886000000000369      0.000000000000430
Pt     11.771999999998425      3.924000000000369      1.962000000000430
Pt     11.771999999998425      7.848000000000368     -1.961999999999570
Pt     13.733999999998428      9.810000000000368      1.962000000000430
Pt     13.733999999998428      7.848000000000368      0.000000000000430
Pt     11.771999999998425      9.810000000000368      0.000000000000430
Pt     11.771999999998425      7.848000000000368      1.962000000000430
Pt     11.771999999998425     11.772000000000368     -1.961999999999570
Pt     13.733999999998428     11.772000000000368      0.000000000000430
Pt     11.771999999998425     13.734000000000371      0.000000000000430
Pt     11.771999999998425     11.772000000000368      1.962000000000430
Pt     15.695999999998431    -13.733999999999632      0.000000000000430
Pt     15.695999999998431     -9.809999999999631      0.000000000000430
Pt     15.695999999998431     -5.885999999999632      0.000000000000430
Pt     15.695999999998431     -7.847999999999631      1.962000000000430
Pt     15.695999999998431     -1.961999999999630      0.000000000000430
Pt     15.695999999998431     -3.923999999999630      1.962000000000430
Pt     15.695999999998431      1.962000000000369      0.000000000000430
Pt     15.695999999998431      0.000000000000369      1.962000000000430
Pt     15.695999999998431      5.886000000000369      0.000000000000430
Pt     15.695999999998431      3.924000000000369      1.962000000000430
Pt     15.695999999998431      9.810000000000368      0.000000000000430
Pt     15.695999999998431      7.848000000000368      1.962000000000430
Pt     15.695999999998431     13.734000000000371      0.000000000000430
Pt     15.695999999998431     11.772000000000368      1.962000000000430
