45

Pt    -13.734000000001576     -5.885999999999632      1.962000000000430
Pt    -13.734000000001576     -3.923999999999630      0.000000000000430
Pt    -15.696000000001575     -3.923999999999630      1.962000000000430
Pt     -9.810000000001574     -9.809999999999631      1.962000000000430
Pt     -9.810000000001574     -5.885999999999632      1.962000000000430
Pt     -9.810000000001574     -7.847999999999631      0.000000000000430
Pt    -11.772000000001574     -5.885999999999632      0.000000000000430
Pt    -11.772000000001574     -7.847999999999631      1.962000000000430
Pt     -9.810000000001574     -1.961999999999630      1.962000000000430
Pt     -9.810000000001574     -3.923999999999630      0.000000000000430
Pt    -11.772000000001574     -1.961999999999630      0.000000000000430
Pt    -11.772000000001574     -3.923999999999630      1.962000000000430
Pt     -9.810000000001574      0.000000000000369      0.000000000000430
Pt     -5.886000000001575     -9.809999999999631      1.962000000000430
Pt     -5.886000000001575    -11.771999999999631      0.000000000000430
Pt     -7.848000000001575     -9.809999999999631      0.000000000000430
Pt     -7.848000000001575    -11.771999999999631      1.962000000000430
Pt     -5.886000000001575     -5.885999999999632      1.962000000000430
Pt     -5.886000000001575     -7.847999999999631      0.000000000000430
Pt     -7.848000000001575     -5.885999999999632      0.000000000000430
Pt     -7.848000000001575     -7.847999999999631      1.962000000000430
Pt     -5.886000000001575     -1.961999999999630      1.962000000000430
Pt     -5.886000000001575     -3.923999999999630      0.000000000000430
Pt     -7.848000000001575     -1.961999999999630      0.000000000000430
Pt     -7.848000000001575     -3.923999999999630      1.962000000000430
Pt     -5.886000000001575      0.000000000000369      0.000000000000430
Pt     -7.848000000001575      0.000000000000369      1.962000000000430
Pt     -1.962000000001574     -9.809999999999631      1.962000000000430
Pt     -1.962000000001574    -11.771999999999631      0.000000000000430
Pt     -3.924000000001573     -9.809999999999631      0.000000000000430
Pt     -3.924000000001573    -11.771999999999631      1.962000000000430
Pt     -1.962000000001574     -5.885999999999632      1.962000000000430
Pt     -1.962000000001574     -7.847999999999631      0.000000000000430
Pt     -3.924000000001573     -5.885999999999632      0.000000000000430
Pt     -3.924000000001573     -7.847999999999631      1.962000000000430
Pt     -1.962000000001574     -1.961999999999630      1.962000000000430
Pt     -1.962000000001574     -3.923999999999630      0.000000000000430
Pt     -3.924000000001573     -1.961999999999630      0.000000000000430
Pt     -3.924000000001573     -3.923999999999630      1.962000000000430
Pt     -1.962000000001574      0.000000000000369      0.000000000000430
Pt     -3.924000000001573      0.000000000000369      1.962000000000430
Pt     -0.000000000001574     -9.809999999999631      0.000000000000430
Pt     -0.000000000001574    -11.771999999999631      1.962000000000430
Pt     -0.000000000001574     -5.885999999999632      0.000000000000430
Pt     -0.000000000001574     -7.847999999999631      1.962000000000430
