212

Pt    -13.734000000001576     -5.885999999999632     -1.961999999999570
Pt    -13.734000000001576     -1.961999999999630     -1.961999999999570
Pt    -15.696000000001575     -3.923999999999630     -1.961999999999570
Pt    -13.734000000001576      1.962000000000369     -1.961999999999570
Pt    -15.696000000001575      0.000000000000369     -1.961999999999570
Pt    -13.734000000001576      5.886000000000369     -1.961999999999570
Pt    -15.696000000001575      3.924000000000369     -1.961999999999570
Pt    -13.734000000001576      9.810000000000368     -1.961999999999570
Pt    -15.696000000001575      7.848000000000368     -1.961999999999570
Pt    -13.734000000001576     13.734000000000371     -1.961999999999570
Pt    -15.696000000001575     11.772000000000368     -1.961999999999570
Pt    -13.734000000001576     17.658000000000371     -1.961999999999570
Pt    -15.696000000001575     15.696000000000375     -1.961999999999570
Pt     -9.810000000001574     -5.885999999999632     -1.961999999999570
Pt    -11.772000000001574     -7.847999999999631     -1.961999999999570
Pt     -9.810000000001574     -1.961999999999630     -1.961999999999570
Pt    -11.772000000001574     -3.923999999999630     -1.961999999999570
Pt     -9.810000000001574     -3.923999999999630      0.000000000000430
Pt     -9.810000000001574      1.962000000000369     -1.961999999999570
Pt    -11.772000000001574      0.000000000000369     -1.961999999999570
Pt     -9.810000000001574      0.000000000000369      0.000000000000430
Pt     -9.810000000001574      5.886000000000369     -1.961999999999570
Pt    -11.772000000001574      3.924000000000369     -1.961999999999570
Pt     -9.810000000001574      3.924000000000369      0.000000000000430
Pt     -9.810000000001574      9.810000000000368     -1.961999999999570
Pt    -11.772000000001574      7.848000000000368     -1.961999999999570
Pt     -9.810000000001574     13.734000000000371     -1.961999999999570
Pt    -11.772000000001574     11.772000000000368     -1.961999999999570
Pt     -9.810000000001574     17.658000000000371     -1.961999999999570
Pt    -11.772000000001574     15.696000000000375     -1.961999999999570
Pt     -9.810000000001574     21.582000000000370     -1.961999999999570
Pt    -11.772000000001574     19.620000000000374     -1.961999999999570
Pt     -5.886000000001575     -5.885999999999632     -1.961999999999570
Pt     -7.848000000001575     -7.847999999999631     -1.961999999999570
Pt     -5.886000000001575     -7.847999999999631      0.000000000000430
Pt     -7.848000000001575     -5.885999999999632      0.000000000000430
Pt     -5.886000000001575     -1.961999999999630     -1.961999999999570
Pt     -7.848000000001575     -3.923999999999630     -1.961999999999570
Pt     -5.886000000001575     -3.923999999999630      0.000000000000430
Pt     -7.848000000001575     -1.961999999999630      0.000000000000430
Pt     -5.886000000001575      1.962000000000369     -1.961999999999570
Pt     -7.848000000001575      0.000000000000369     -1.961999999999570
Pt     -5.886000000001575      0.000000000000369      0.000000000000430
Pt     -7.848000000001575      1.962000000000369      0.000000000000430
Pt     -5.886000000001575      5.886000000000369     -1.961999999999570
Pt     -7.848000000001575      3.924000000000369     -1.961999999999570
Pt     -5.886000000001575      3.924000000000369      0.000000000000430
Pt     -7.848000000001575      5.886000000000369      0.000000000000430
Pt     -5.886000000001575      9.810000000000368     -1.961999999999570
Pt     -7.848000000001575      7.848000000000368     -1.961999999999570
Pt     -5.886000000001575      7.848000000000368      0.000000000000430
Pt     -5.886000000001575     13.734000000000371     -1.961999999999570
Pt     -7.848000000001575     11.772000000000368     -1.961999999999570
Pt     -5.886000000001575     17.658000000000371     -1.961999999999570
Pt     -7.848000000001575     15.696000000000375     -1.961999999999570
Pt     -5.886000000001575     21.582000000000370     -1.961999999999570
Pt     -7.848000000001575     19.620000000000374     -1.961999999999570
Pt     -1.962000000001574     -5.885999999999632     -1.961999999999570
Pt     -3.924000000001573     -7.847999999999631     -1.961999999999570
Pt     -1.962000000001574     -7.847999999999631      0.000000000000430
Pt     -3.924000000001573     -5.885999999999632      0.000000000000430
Pt     -1.962000000001574     -1.961999999999630     -1.961999999999570
Pt     -3.924000000001573     -3.923999999999630     -1.961999999999570
Pt     -1.962000000001574     -3.923999999999630      0.000000000000430
Pt     -3.924000000001573     -1.961999999999630      0.000000000000430
Pt     -1.962000000001574      1.962000000000369     -1.961999999999570
Pt     -3.924000000001573      0.000000000000369     -1.961999999999570
Pt     -1.962000000001574      0.000000000000369      0.000000000000430
Pt     -3.924000000001573      1.962000000000369      0.000000000000430
Pt     -1.962000000001574      5.886000000000369     -1.961999999999570
Pt     -3.924000000001573      3.924000000000369     -1.961999999999570
Pt     -1.962000000001574      3.924000000000369      0.000000000000430
Pt     -3.924000000001573      5.886000000000369      0.000000000000430
Pt     -1.962000000001574      9.810000000000368     -1.961999999999570
Pt     -3.924000000001573      7.848000000000368     -1.961999999999570
Pt     -1.962000000001574      7.848000000000368      0.000000000000430
Pt     -1.962000000001574     13.734000000000371     -1.961999999999570
Pt     -3.924000000001573     11.772000000000368     -1.961999999999570
Pt     -1.962000000001574     17.658000000000371     -1.961999999999570
Pt     -3.924000000001573     15.696000000000375     -1.961999999999570
Pt     -1.962000000001574     21.582000000000370     -1.961999999999570
Pt     -3.924000000001573     19.620000000000374     -1.961999999999570
Pt      1.961999999998426     -5.885999999999632     -1.961999999999570
Pt     -0.000000000001574     -7.847999999999631     -1.961999999999570
Pt      1.961999999998426     -7.847999999999631      0.000000000000430
Pt     -0.000000000001574     -5.885999999999632      0.000000000000430
Pt      1.961999999998426     -1.961999999999630     -1.961999999999570
Pt     -0.000000000001574     -3.923999999999630     -1.961999999999570
Pt      1.961999999998426     -3.923999999999630      0.000000000000430
Pt     -0.000000000001574     -1.961999999999630      0.000000000000430
Pt      1.961999999998426      1.962000000000369     -1.961999999999570
Pt     -0.000000000001574      0.000000000000369     -1.961999999999570
Pt      1.961999999998426      0.000000000000369      0.000000000000430
Pt     -0.000000000001574      1.962000000000369      0.000000000000430
Pt      1.961999999998426      5.886000000000369     -1.961999999999570
Pt     -0.000000000001574      3.924000000000369     -1.961999999999570
Pt      1.961999999998426      3.924000000000369      0.000000000000430
Pt     -0.000000000001574      5.886000000000369      0.000000000000430
Pt      1.961999999998426      9.810000000000368     -1.961999999999570
Pt     -0.000000000001574      7.848000000000368     -1.961999999999570
Pt      1.961999999998426      7.848000000000368      0.000000000000430
Pt      1.961999999998426     13.734000000000371     -1.961999999999570
Pt     -0.000000000001574     11.772000000000368     -1.961999999999570
Pt      1.961999999998426     17.658000000000371     -1.961999999999570
Pt     -0.000000000001574     15.696000000000375     -1.961999999999570
Pt      1.961999999998426     21.582000000000370     -1.961999999999570
Pt     -0.000000000001574     19.620000000000374     -1.961999999999570
Pt      5.885999999998425     -5.885999999999632     -1.961999999999570
Pt      3.923999999998426     -7.847999999999631     -1.961999999999570
Pt      5.885999999998425     -7.847999999999631      0.000000000000430
Pt      3.923999999998426     -5.885999999999632      0.000000000000430
Pt      5.885999999998425     -1.961999999999630     -1.961999999999570
Pt      3.923999999998426     -3.923999999999630     -1.961999999999570
Pt      5.885999999998425     -3.923999999999630      0.000000000000430
Pt      3.923999999998426     -1.961999999999630      0.000000000000430
Pt      5.885999999998425      1.962000000000369     -1.961999999999570
Pt      3.923999999998426      0.000000000000369     -1.961999999999570
Pt      5.885999999998425      0.000000000000369      0.000000000000430
Pt      3.923999999998426      1.962000000000369      0.000000000000430
Pt      5.885999999998425      5.886000000000369     -1.961999999999570
Pt      3.923999999998426      3.924000000000369     -1.961999999999570
Pt      5.885999999998425      3.924000000000369      0.000000000000430
Pt      3.923999999998426      5.886000000000369      0.000000000000430
Pt      5.885999999998425      9.810000000000368     -1.961999999999570
Pt      3.923999999998426      7.848000000000368     -1.961999999999570
Pt      5.885999999998425      7.848000000000368      0.000000000000430
Pt      5.885999999998425     13.734000000000371     -1.961999999999570
Pt      3.923999999998426     11.772000000000368     -1.961999999999570
Pt      5.885999999998425     17.658000000000371     -1.961999999999570
Pt      3.923999999998426     15.696000000000375     -1.961999999999570
Pt      5.885999999998425     21.582000000000370     -1.961999999999570
Pt      3.923999999998426     19.620000000000374     -1.961999999999570
Pt      7.847999999998425     -5.885999999999632      0.000000000000430
Pt      9.809999999998425     -1.961999999999630     -1.961999999999570
Pt      7.847999999998425     -3.923999999999630     -1.961999999999570
Pt      9.809999999998425     -3.923999999999630      0.000000000000430
Pt      7.847999999998425     -1.961999999999630      0.000000000000430
Pt      9.809999999998425      1.962000000000369     -1.961999999999570
Pt      7.847999999998425      0.000000000000369     -1.961999999999570
Pt      9.809999999998425      0.000000000000369      0.000000000000430
Pt      7.847999999998425      1.962000000000369      0.000000000000430
Pt      9.809999999998425      5.886000000000369     -1.961999999999570
Pt      7.847999999998425      3.924000000000369     -1.961999999999570
Pt      9.809999999998425      3.924000000000369      0.000000000000430
Pt      7.847999999998425      5.886000000000369      0.000000000000430
Pt      9.809999999998425      9.810000000000368     -1.961999999999570
Pt      7.847999999998425      7.848000000000368     -1.961999999999570
Pt      9.809999999998425      7.848000000000368      0.000000000000430
Pt      9.809999999998425     13.734000000000371     -1.961999999999570
Pt      7.847999999998425     11.772000000000368     -1.961999999999570
Pt      9.809999999998425     17.658000000000371     -1.961999999999570
Pt      7.847999999998425     15.696000000000375     -1.961999999999570
Pt      9.809999999998425     21.582000000000370     -1.961999999999570
Pt      7.847999999998425     19.620000000000374     -1.961999999999570
Pt     13.733999999998428     -1.961999999999630     -1.961999999999570
Pt     11.771999999998425     -3.923999999999630     -1.961999999999570
Pt     13.733999999998428     -3.923999999999630      0.000000000000430
Pt     11.771999999998425     -1.961999999999630      0.000000000000430
Pt     13.733999999998428      1.962000000000369     -1.961999999999570
Pt     11.771999999998425      0.000000000000369     -1.961999999999570
Pt     13.733999999998428      0.000000000000369      0.000000000000430
Pt     11.771999999998425      1.962000000000369      0.000000000000430
Pt     13.733999999998428      5.886000000000369     -1.961999999999570
Pt     11.771999999998425      3.924000000000369     -1.961999999999570
Pt     13.733999999998428      3.924000000000369      0.000000000000430
Pt     11.771999999998425      5.886000000000369      0.000000000000430
Pt     13.733999999998428      9.810000000000368     -1.961999999999570
Pt     11.771999999998425      7.848000000000368     -1.961999999999570
Pt     13.733999999998428      7.848000000000368      0.000000000000430
Pt     13.733999999998428     13.734000000000371     -1.961999999999570
Pt     11.771999999998425     11.772000000000368     -1.961999999999570
Pt     13.733999999998428     17.658000000000371     -1.961999999999570
Pt     11.771999999998425     15.696000000000375     -1.961999999999570
Pt     13.733999999998428     21.582000000000370     -1.961999999999570
Pt     11.771999999998425     19.620000000000374     -1.961999999999570
Pt     15.695999999998431     -1.961999999999630      0.000000000000430
Pt     17.657999999998427      1.962000000000369     -1.961999999999570
Pt     15.695999999998431      0.000000000000369     -1.961999999999570
Pt     17.657999999998427      0.000000000000369      0.000000000000430
Pt     15.695999999998431      1.962000000000369      0.000000000000430
Pt     17.657999999998427      5.886000000000369     -1.961999999999570
Pt     15.695999999998431      3.924000000000369     -1.961999999999570
Pt     17.657999999998427      3.924000000000369      0.000000000000430
Pt     15.695999999998431      5.886000000000369      0.000000000000430
Pt     17.657999999998427      9.810000000000368     -1.961999999999570
Pt     15.695999999998431      7.848000000000368     -1.961999999999570
Pt     17.657999999998427      7.848000000000368      0.000000000000430
Pt     17.657999999998427     13.734000000000371     -1.961999999999570
Pt     15.695999999998431     11.772000000000368     -1.961999999999570
Pt     17.657999999998427     17.658000000000371     -1.961999999999570
Pt     19.619999999998431     19.620000000000374     -1.961999999999570
Pt     15.695999999998431     15.696000000000375     -1.961999999999570
Pt     17.657999999998427     21.582000000000370     -1.961999999999570
Pt     19.619999999998431     19.620000000000374     -1.961999999999570
Pt     15.695999999998431     19.620000000000374     -1.961999999999570
Pt     21.581999999998427      1.962000000000369     -1.961999999999570
Pt     19.619999999998431      1.962000000000369      0.000000000000430
Pt     21.581999999998427      5.886000000000369     -1.961999999999570
Pt     19.619999999998431      3.924000000000369     -1.961999999999570
Pt     21.581999999998427      3.924000000000369      0.000000000000430
Pt     19.619999999998431      5.886000000000369      0.000000000000430
Pt     21.581999999998427      9.810000000000368     -1.961999999999570
Pt     19.619999999998431      7.848000000000368     -1.961999999999570
Pt     21.581999999998427     13.734000000000371     -1.961999999999570
Pt     19.619999999998431     11.772000000000368     -1.961999999999570
Pt     21.581999999998427     17.658000000000371     -1.961999999999570
Pt     19.619999999998431     19.620000000000374     -1.961999999999570
Pt     19.619999999998431     15.696000000000375     -1.961999999999570
Pt     21.581999999998427     21.582000000000370     -1.961999999999570
Pt     19.619999999998431     19.620000000000374     -1.961999999999570
Pt     21.581999999998427     21.582000000000370     -1.961999999999570
Pt     19.619999999998431     19.620000000000374     -1.961999999999570
