19

Pt      7.847999999998425     -1.961999999999630      0.000000000000430
Pt      9.809999999998425      1.962000000000369     -1.961999999999570
Pt      7.847999999998425      1.962000000000369     -3.923999999999570
Pt      7.847999999998425      0.000000000000369     -1.961999999999570
Pt      7.847999999998425      1.962000000000369      0.000000000000430
Pt      7.847999999998425      0.000000000000369      1.962000000000430
Pt      7.847999999998425      1.962000000000369      3.924000000000429
Pt      7.847999999998425      3.924000000000369     -5.885999999999571
Pt      9.809999999998425      5.886000000000369     -1.961999999999570
Pt      9.809999999998425      3.924000000000369     -3.923999999999570
Pt      7.847999999998425      5.886000000000369     -3.923999999999570
Pt      7.847999999998425      3.924000000000369     -1.961999999999570
Pt      9.809999999998425      3.924000000000369      0.000000000000430
Pt      7.847999999998425      5.886000000000369      0.000000000000430
Pt      7.847999999998425      3.924000000000369      1.962000000000430
Pt      7.847999999998425      5.886000000000369      3.924000000000429
Pt      7.847999999998425      7.848000000000368     -1.961999999999570
Pt      7.847999999998425      9.810000000000368      0.000000000000430
Pt      7.847999999998425      7.848000000000368      1.962000000000430
