22

Pt     -1.962000000001574     11.772000000000368      0.000000000000430
Pt      1.961999999998426      9.810000000000368      1.962000000000430
Pt      1.961999999998426      9.810000000000368      5.886000000000429
Pt     -0.000000000001574      9.810000000000368      3.924000000000429
Pt      1.961999999998426      7.848000000000368      7.848000000000429
Pt      1.961999999998426     11.772000000000368     -3.923999999999570
Pt     -0.000000000001574     11.772000000000368     -1.961999999999570
Pt      1.961999999998426     11.772000000000368      0.000000000000430
Pt     -0.000000000001574     11.772000000000368      1.962000000000430
Pt      1.961999999998426     11.772000000000368      3.924000000000429
Pt      5.885999999998425      9.810000000000368     -1.961999999999570
Pt      5.885999999998425      9.810000000000368      1.962000000000430
Pt      3.923999999998426      9.810000000000368      0.000000000000430
Pt      5.885999999998425      7.848000000000368      3.924000000000429
Pt      3.923999999998426      9.810000000000368      3.924000000000429
Pt      3.923999999998426      7.848000000000368      5.886000000000429
Pt      3.923999999998426     11.772000000000368     -1.961999999999570
Pt      5.885999999998425     11.772000000000368      0.000000000000430
Pt      3.923999999998426     11.772000000000368      1.962000000000430
Pt      9.809999999998425      7.848000000000368      0.000000000000430
Pt      7.847999999998425      9.810000000000368      0.000000000000430
Pt      7.847999999998425      7.848000000000368      1.962000000000430
